LAMMPS (22 Jul 2025 - Update 2)
# LAMMPS input for LJ binary mixture with Widom insertion
# Equal sigma, different epsilon

# Initialize
units           lj
atom_style      atomic
boundary        p p p

# Create simulation box
lattice         fcc 0.8
Lattice spacing in x,y,z = 1.7099759 1.7099759 1.7099759
region          box block 0 15 0 15 0 15
create_box      2 box
Created orthogonal box = (0 0 0) to (25.649639 25.649639 25.649639)
  2 by 2 by 2 MPI processor grid
create_atoms    1 box
Created 13500 atoms
  using lattice units in orthogonal box = (0 0 0) to (25.649639 25.649639 25.649639)
  create_atoms CPU = 0.001 seconds

# Set masses (both equal to 1.0 in reduced units)
mass            1 1.0
mass            2 1.0

# Set up 50:50 mixture
set             group all type/fraction 2 0.5 12345
Setting atom values ...
  6702 settings made for type/fraction

# Define groups
group           typeA type 1
6798 atoms in group typeA
group           typeB type 2
6702 atoms in group typeB

# LJ parameters
pair_style      lj/cut 3.0
pair_modify     tail yes
pair_coeff      1 1 0.8 1.0    # A-A interaction
pair_coeff      2 2 1.2 1.0    # B-B interaction
pair_coeff      1 2 0.2 1.0 # A-B interaction

# Initial velocities
velocity        all create 5.0 11111 dist gaussian

# Neighbor list
neighbor        0.3 bin
neigh_modify    every 1 delay 0 check yes

# Time integration (NPT)
fix             1 all npt temp 5.0 5.0 $(100*dt) iso 1.0 1.0 $(1000*dt)
fix             1 all npt temp 5.0 5.0 0.5 iso 1.0 1.0 $(1000*dt)
fix             1 all npt temp 5.0 5.0 0.5 iso 1.0 1.0 5
timestep        0.005

# Output including enthalpy
thermo_style    custom step temp pe ke etotal press density enthalpy vol
thermo          1000

# Equilibration
run             10000
Generated 0 of 1 mixed pair_coeff terms from geometric mixing rule
Neighbor list info ...
  update: every = 1 steps, delay = 0 steps, check = yes
  max neighbors/atom: 2000, page size: 100000
  master list distance cutoff = 3.3
  ghost atom cutoff = 3.3
  binsize = 1.65, bins = 16 16 16
  1 neighbor lists, perpetual/occasional/extra = 1 0 0
  (1) pair lj/cut, perpetual
      attributes: half, newton on
      pair build: half/bin/atomonly/newton
      stencil: half/bin/3d
      bin: standard
Per MPI rank memory allocation (min/avg/max) = 3.606 | 3.606 | 3.606 Mbytes
   Step          Temp          PotEng         KinEng         TotEng         Press         Density        Enthalpy        Volume    
         0   5             -4.0407837      7.4994444      3.4586608     -0.088736676    0.8            3.3477399      16875        
      1000   4.9944976     -1.1230138      7.4911915      6.3681776      7.3177479      0.62809866     18.018812      21493.439    
      2000   4.9783132     -1.0252605      7.4669166      6.4416562      5.0493631      0.51891681     16.172239      26015.731    
      3000   5.0017728     -0.97909639     7.5021035      6.5230071      3.7191445      0.44247927     14.928247      30509.904    
      4000   4.9820307     -0.86566873     7.4724925      6.6068238      3.0120152      0.38505629     14.429096      35059.809    
      5000   4.994091      -0.76298313     7.4905816      6.7275984      2.5189345      0.34027453     14.130252      39673.848    
      6000   5.010752      -0.72496305     7.5155713      6.7906083      2.0880118      0.30477425     13.641619      44295.08     
      7000   5.0277206     -0.68956624     7.5410222      6.851456       1.8052447      0.27607205     13.390491      48900.278    
      8000   5.0359515     -0.6105847      7.5533676      6.9427829      1.6517409      0.25269911     13.479177      53423.22     
      9000   4.9845358     -0.57370082     7.4762498      6.902549       1.4639186      0.23361842     13.16883       57786.538    
     10000   5.0246746     -0.52334349     7.5364535      7.0131101      1.3685185      0.21819692     13.285052      61870.717    
Loop time of 26.729 on 8 procs for 10000 steps with 13500 atoms

Performance: 161622.405 tau/day, 374.126 timesteps/s, 5.051 Matom-step/s
89.1% CPU use with 8 MPI tasks x no OpenMP threads

MPI task timing breakdown:
Section |  min time  |  avg time  |  max time  |%varavg| %total
---------------------------------------------------------------
Pair    | 5.5563     | 5.6169     | 5.7523     |   2.3 | 21.01
Neigh   | 6.6203     | 6.671      | 6.6999     |   1.1 | 24.96
Comm    | 9.0145     | 9.1496     | 9.2746     |   2.6 | 34.23
Output  | 0.00025163 | 0.00027968 | 0.00043183 |   0.0 |  0.00
Modify  | 4.2304     | 4.2725     | 4.3214     |   1.3 | 15.98
Other   |            | 1.019      |            |       |  3.81

Nlocal:         1687.5 ave        1727 max        1651 min
Histogram: 1 1 2 0 0 1 0 1 1 1
Nghost:         2297.5 ave        2342 max        2274 min
Histogram: 2 2 1 0 0 0 2 0 0 1
Neighs:        27442.9 ave       28563 max       26238 min
Histogram: 1 1 0 2 0 1 0 0 2 1

Total # of neighbors = 219543
Ave neighs/atom = 16.262444
Neighbor list builds = 3275
Dangerous builds = 0

dump            1 all custom 1000 dump.lammpstrj id type x y z
dump_modify     1 sort id

# production
thermo_style    custom step temp pe enthalpy press vol
thermo          1000
run             100000
Generated 0 of 1 mixed pair_coeff terms from geometric mixing rule
Per MPI rank memory allocation (min/avg/max) = 3.637 | 3.638 | 3.639 Mbytes
   Step          Temp          PotEng        Enthalpy        Press          Volume    
     10000   5.0246746     -0.52334349     13.285052      1.3685185      61870.717    
     11000   4.9918067     -0.51960867     13.043436      1.2499953      65619.848    
     12000   5.0269232     -0.47341309     13.175044      1.1953886      68987.2      
     13000   4.9805879     -0.47991964     12.892128      1.1079504      71910.449    
     14000   4.9775759     -0.44303124     12.986466      1.08352        74303.904    
     15000   5.0551241     -0.4300367      13.191216      1.0692161      76250.469    
     16000   4.9934807     -0.43808647     12.902331      1.0172829      77643.239    
     17000   4.9251974     -0.42186797     12.798367      1.0019233      78594.157    
     18000   5.0123927     -0.43395602     12.933029      0.99914624     79028.334    
     19000   5.0132665     -0.42351528     12.974166      0.99972264     79379.589    
     20000   4.9986182     -0.40447148     13.010491      1.0076213      79283.237    
     21000   5.0509259     -0.39726266     13.201537      1.0251311      79316.813    
     22000   5.0030816     -0.4242946      12.944729      0.99473648     79595.872    
     23000   4.957124      -0.43448736     12.807299      0.99015894     79168.898    
     24000   5.0242477     -0.4218008      13.035217      1.001368       79827.051    
     25000   5.075029      -0.41342485     13.159625      1.0082889      79812.892    
     26000   4.9545247     -0.42436973     12.852703      1.0073379      78343.908    
     27000   4.9778889     -0.43396242     12.814966      0.98394134     79339.848    
     28000   4.9582077     -0.41298811     12.864063      0.98198329     80290.489    
     29000   5.0396511     -0.42230104     13.075222      1.0148993      78994.23     
     30000   5.0421363     -0.41777074     13.072353      1.005039       79619.77     
     31000   4.8949091     -0.42384898     12.694852      0.98084226     79511.157    
     32000   5.0216973     -0.41116395     13.081707      1.0200362      78891.244    
     33000   4.9815764     -0.42638361     12.838702      0.97828085     79945.558    
     34000   4.9906392     -0.41931363     12.972575      0.99978447     79754.729    
     35000   4.9607698     -0.43129502     12.836822      1.00304        78432.999    
     36000   5.0410552     -0.43150286     12.964872      0.98185677     80232.933    
     37000   5.0291978     -0.40764679     13.073298      1.0049734      79762.346    
     38000   4.9260659     -0.40307954     12.894786      1.0105082      78946.166    
     39000   4.9539405     -0.42732035     12.827758      0.98884373     79520.851    
     40000   5.0206608     -0.42684197     12.929623      0.99349777     79166.179    
     41000   5.039912      -0.42158052     13.007177      0.98905659     80114.298    
     42000   4.9766841     -0.43084728     12.874187      0.99532906     79217.588    
     43000   4.986669      -0.42233724     12.900595      1.004584       78527.045    
     44000   5.0557686     -0.42935887     13.009395      0.9918423      79701.635    
     45000   5.0209883     -0.42255446     12.998594      0.99858732     79630.513    
     46000   4.9649581     -0.4157155      12.933965      1.0083998      79023.944    
     47000   5.0242065     -0.40222796     13.137353      1.019717       79484.503    
     48000   5.0982776     -0.43119963     13.046465      0.97818404     80471.559    
     49000   4.95505       -0.42912497     12.839821      1.003878       78494.043    
     50000   4.948983      -0.44645131     12.682195      0.97969993     78623.299    
     51000   5.0522793     -0.42937202     12.981948      0.98806112     79703.309    
     52000   5.0177113     -0.416051       13.036449      1.0063233      79504.892    
     53000   4.9700322     -0.42556971     12.883984      1.0026614      78833.472    
     54000   5.0085848     -0.40839074     12.982367      0.9917105      80022.239    
     55000   5.0589569     -0.42183127     13.081066      1.0041734      79520.956    
     56000   4.9874965     -0.43243634     12.882118      1.0031941      78506.406    
     57000   4.9435233     -0.42109958     12.786634      0.97709798     80038.518    
     58000   4.9950114     -0.42905023     12.894169      0.98715403     79746.397    
     59000   5.0691568     -0.43644012     13.050601      1.0071953      78864.774    
     60000   5.0065575     -0.40659396     13.01505       1.0037353      79519.881    
     61000   5.0066507     -0.41996617     12.951962      0.98713119     80175.627    
     62000   4.973818      -0.41485175     12.951326      1.020651       78117.838    
     63000   5.0314738     -0.42278834     13.02411       1.0052258      79239.238    
     64000   4.9863284     -0.41250261     12.957486      0.9935257      80047.422    
     65000   4.9794954     -0.4102734      12.948675      1.0031666      79267.49     
     66000   5.0051866     -0.43602896     12.869997      0.99110197     78986.649    
     67000   5.0552625     -0.43452964     12.98101       0.98513315     79936.712    
     68000   4.9773401     -0.42194715     12.905446      0.99520349     79517.537    
     69000   5.0106981     -0.426078       12.944858      1.0071056      78490.791    
     70000   5.0329167     -0.42358015     12.953823      0.98357972     79999.543    
     71000   5.0484326     -0.42089256     13.06723       0.99959922     79898.483    
     72000   4.9694739     -0.42838525     12.831112      0.99556381     78728.072    
     73000   5.0100975     -0.43608216     12.873603      0.98281936     79601.396    
     74000   5.0045065     -0.43030003     12.900285      0.98438605     79876.335    
     75000   5.0294401     -0.42179732     13.019709      1.0115574      78712.017    
     76000   4.9997908     -0.42608855     12.927512      0.99692223     79279.341    
     77000   4.9620561     -0.40722894     12.884431      0.98274864     80349.358    
     78000   4.9883419     -0.41686471     12.994246      1.0164466      78748.411    
     79000   5.0211736     -0.4142231      13.040513      1.0081382      79322.157    
     80000   4.9830817     -0.42145709     12.912732      0.99485524     79520.735    
     81000   5.0044268     -0.44577348     12.923095      1.006111       78666.859    
     82000   4.9657734     -0.41780363     12.915591      1.0013272      79346.059    
     83000   5.0670742     -0.39082414     13.255193      1.0145621      80449.072    
     84000   5.0043231     -0.4301498      12.934176      1.001366       78980.47     
     85000   4.8891448     -0.41251342     12.766891      0.9962693      79219.663    
     86000   4.981203      -0.41936375     12.925888      0.9953515      79669.358    
     87000   4.9972458     -0.41526908     12.99131       1.010169       78998.744    
     88000   4.9913525     -0.42911967     12.976177      1.0227578      78126.129    
     89000   5.0661365     -0.42130174     13.098196      0.99437508     80383.713    
     90000   4.9851102     -0.42599604     12.890463      0.99269513     79411.289    
     91000   4.9222168     -0.42215618     12.782368      0.99307522     79141.613    
     92000   5.0273339     -0.41770551     13.010002      1.0007593      79417.782    
     93000   5.0139212     -0.40768786     13.024303      1.0003524      79779.381    
     94000   4.9971301     -0.42436553     12.963628      1.008853       78855.419    
     95000   4.9536906     -0.42317421     12.837007      0.99541101     79070.501    
     96000   5.0248174     -0.41079909     13.038857      0.9902276      80613.126    
     97000   5.0036876     -0.4394023      12.895616      0.99633684     78994.946    
     98000   4.9880378     -0.41859846     12.911012      0.99630126     79242.555    
     99000   5.0036384     -0.4210416      12.982337      0.99861349     79739.997    
    100000   5.0211089     -0.42192718     12.998426      0.99834795     79636.412    
    101000   4.9952421     -0.42319785     12.944244      1.0063983      78810.052    
    102000   4.9675694     -0.42929519     12.853917      0.99227196     79350.755    
    103000   5.0191222     -0.4241272      12.903473      0.96907257     80791.588    
    104000   4.9818964     -0.41646509     12.883866      0.99604486     78990.963    
    105000   4.9860954     -0.4368509      12.837082      0.98754044     79224.241    
    106000   5.060378      -0.40936981     13.160772      1.0158         79476.122    
    107000   5.0177089     -0.42348503     12.951627      0.99111456     79670.84     
    108000   4.9454071     -0.42173614     12.808467      0.99248127     79065.13     
    109000   4.9525848     -0.41172744     12.916595      1.0006236      79600.302    
    110000   5.0371947     -0.42638943     12.931375      0.9703443      80728.234    
Loop time of 228.19 on 8 procs for 100000 steps with 13500 atoms

Performance: 189316.221 tau/day, 438.232 timesteps/s, 5.916 Matom-step/s
85.7% CPU use with 8 MPI tasks x no OpenMP threads

MPI task timing breakdown:
Section |  min time  |  avg time  |  max time  |%varavg| %total
---------------------------------------------------------------
Pair    | 34.122     | 34.358     | 34.509     |   2.2 | 15.06
Neigh   | 59.894     | 60.265     | 60.461     |   2.2 | 26.41
Comm    | 68.927     | 69.241     | 69.837     |   3.3 | 30.34
Output  | 0.37159    | 0.39156    | 0.41599    |   2.6 |  0.17
Modify  | 51.82      | 52.126     | 52.317     |   2.6 | 22.84
Other   |            | 11.81      |            |       |  5.17

Nlocal:         1687.5 ave        1715 max        1638 min
Histogram: 1 0 0 0 1 2 1 0 0 3
Nghost:        2034.75 ave        2085 max        1980 min
Histogram: 1 0 1 1 1 0 2 0 0 2
Neighs:        20969.6 ave       21757 max       19967 min
Histogram: 1 0 0 0 3 0 1 1 1 1

Total # of neighbors = 167757
Ave neighs/atom = 12.426444
Neighbor list builds = 32660
Dangerous builds = 0

write_data      final_config_1.data
System init for write_data ...
Generated 0 of 1 mixed pair_coeff terms from geometric mixing rule
WARNING: Not all mixed pair coeffs generated from mixing. Use write_data with 'pair ij' option to store all pair coeffs. (src/write_data.cpp:364)

unfix 1
fix 2 all npt temp 1.0 1.0 $(100*dt) iso 1.0 1.0 $(1000*dt)
fix 2 all npt temp 1.0 1.0 0.5 iso 1.0 1.0 $(1000*dt)
fix 2 all npt temp 1.0 1.0 0.5 iso 1.0 1.0 5

run 100000
Generated 0 of 1 mixed pair_coeff terms from geometric mixing rule
Per MPI rank memory allocation (min/avg/max) = 5.068 | 5.069 | 5.071 Mbytes
   Step          Temp          PotEng        Enthalpy        Press          Volume    
    110000   5.0371947     -0.42638943     12.931375      0.9703443      80728.234    
    111000   1.008968      -1.0849074      1.0491724      0.14133737     59290.684    
    112000   1.0090706     -1.5385135      0.49192517     0.15186734     45952.975    
    113000   1.0000322     -1.9713549     -0.043239546    0.15549236     37174.857    
    114000   1.0100379     -2.4786051     -0.53763505     0.18574758     30963.215    
    115000   0.99951497    -2.9850997     -1.0547402      0.22064242     26382.844    
    116000   0.98602364    -3.434455      -1.3932654      0.32982008     23014.245    
    117000   0.99524487    -3.8675439     -1.5736128      0.52389614     20645.034    
    118000   0.99311904    -4.1667003     -1.6060993      0.75317358     19197.357    
    119000   0.99955278    -4.3360862     -1.4727365      0.99416688     18523.829    
    120000   1.0024984     -4.4266832     -1.4854693      1.0587626      18330.172    
    121000   1.0076353     -4.4704229     -1.6098265      0.99659006     18277.272    
    122000   0.9952946     -4.5172073     -1.6996694      0.97999679     18248.568    
    123000   1.0006643     -4.5712742     -1.7702433      0.96546541     18179.799    
    124000   0.99576137    -4.5920398     -1.7460519      1.0041195      18183.256    
    125000   1.0076016     -4.6075692     -1.7350686      1.0120346      18157.814    
    126000   0.99871799    -4.6332215     -1.7079092      1.0652458      18088.946    
    127000   1.0088357     -4.645915      -1.7621736      1.0205475      18130.561    
    128000   0.99297797    -4.6769743     -1.8407649      1.0056027      18081.209    
    129000   1.0091909     -4.7179844     -1.9114627      0.96816111     18027.414    
    130000   0.99511597    -4.723546      -1.9207231      0.98302679     17993.918    
    131000   1.0037631     -4.7614264     -1.901175       1.0197554      17934.395    
    132000   0.99433567    -4.7664594     -1.9049029      1.0254179      18038.7      
    133000   1.0026457     -4.7639554     -1.923672       0.99935496     18053.4      
    134000   1.0048937     -4.8028222     -1.9020622      1.0476884      17956.36     
    135000   0.99681536    -4.8117528     -1.9378576      1.0376155      17938.793    
    136000   0.99232096    -4.8304739     -1.9890934      1.0185666      17932.676    
    137000   1.0023408     -4.8529245     -2.014845       1.0085093      17866.149    
    138000   0.99472132    -4.8289598     -2.0669092      0.95292051     17993.178    
    139000   0.99630271    -4.8606159     -2.0828866      0.96789493     17900.404    
    140000   1.0123467     -4.8512126     -2.0645588      0.9537486      17951.611    
    141000   1.0008541     -4.8664158     -2.0457881      0.99575097     17888.689    
    142000   0.9967202     -4.8603021     -2.0147039      1.0173142      17923.162    
    143000   0.99503549    -4.9092439     -2.1363467      0.96814536     17854.897    
    144000   1.0108713     -4.875903      -2.0351698      0.99645778     17944.836    
    145000   0.99881918    -4.8864468     -2.0263746      1.0257197      17925.35     
    146000   1.0002107     -4.9024668     -2.155822       0.94001787     17900.657    
    147000   0.99454821    -4.9119016     -2.0798855      1.0149173      17828.16     
    148000   0.99312708    -4.9170927     -2.0305054      1.0612622      17770.91     
    149000   1.0020466     -4.8944836     -2.042663       1.0190418      17869.372    
    150000   1.0059109     -4.9138122     -2.0479363      1.0295027      17796.105    
    151000   0.99370899    -4.9031935     -2.0600024      1.0245151      17824.981    
    152000   0.99570475    -4.8988446     -2.1201068      0.97047565     17879.307    
    153000   0.9941611     -4.9108226     -2.1259992      0.97509154     17910.979    
    154000   0.99967688    -4.9254383     -1.9983486      1.0857939      17750.84     
    155000   0.9880052     -4.9332982     -2.1025853      1.0208511      17837.079    
    156000   0.99198335    -4.9414594     -2.191221       0.95337707     17875.45     
    157000   1.006515      -4.939628      -2.0670325      1.0339125      17796.109    
    158000   0.99918465    -4.9496847     -2.0816668      1.0383204      17803.994    
    159000   1.0015776     -4.9469162     -2.0266478      1.0756808      17796.339    
    160000   1.0059795     -4.9657285     -2.1679224      0.97390952     17866.964    
    161000   1.0019928     -4.9846817     -2.1633967      0.99982838     17801.552    
    162000   0.9981805     -4.9754364     -2.1753919      0.98741128     17813.188    
    163000   1.005476      -5.0146765     -2.1838386      1.0103009      17674.864    
    164000   1.0062245     -4.9664305     -2.0753295      1.0501179      17764.982    
    165000   0.99644748    -4.999629      -2.2541711      0.9515193      17747.526    
    166000   0.9908967     -4.9869384     -2.2491432      0.94692006     17843.178    
    167000   0.98876446    -4.9983803     -2.2373119      0.97130216     17763.192    
    168000   0.98907977    -4.9875768     -2.1340347      1.0412821      17762.177    
    169000   1.0009336     -5.0081588     -2.1547252      1.0289555      17740.272    
    170000   1.0001847     -4.9752538     -2.2071055      0.95896152     17850.313    
    171000   1.0034454     -5.0122356     -2.2594844      0.95001431     17730.13     
    172000   0.9952726     -5.0018427     -2.1634625      1.0256232      17711.529    
    173000   1.0051905     -5.0022126     -2.2397655      0.95222786     17789.269    
    174000   0.99712171    -4.9905463     -2.2015084      0.98006761     17816.926    
    175000   0.99420867    -5.0026676     -2.2203034      0.98071007     17773.532    
    176000   1.0027424     -4.9936903     -2.1692549      1.0022418      17785.976    
    177000   1.0000013     -4.9886463     -2.1089504      1.0479455      17775.131    
    178000   0.99852218    -4.976329      -2.104486       1.0394985      17846.398    
    179000   0.99363659    -5.0105476     -2.1811784      1.0217362      17692.271    
    180000   0.99636039    -4.9741743     -2.1362473      1.018585       17806.282    
    181000   1.0065525     -4.9901528     -2.1647998      0.99940444     17771.673    
    182000   0.99271481    -5.0012645     -2.212386       0.99005851     17725.088    
    183000   1.0003636     -4.9837996     -2.318692       0.87897635     17887.955    
    184000   1.0062065     -4.9945347     -2.1913847      0.98047752     17816.168    
    185000   0.98875061    -4.9807603     -2.14349        1.0271481      17799.216    
    186000   0.99408042    -5.0109809     -2.2696223      0.95218541     17727.328    
    187000   1.0002788     -4.9995075     -2.1279336      1.0424157      17758.849    
    188000   0.99994002    -4.9784767     -2.0877025      1.0556656      17787.987    
    189000   1.0099614     -4.9792479     -2.1284433      1.0120728      17820.516    
    190000   0.99707322    -4.9780826     -2.2118656      0.96242273     17824.489    
    191000   0.99276809    -5.0034093     -2.1646892      1.029963       17690.594    
    192000   1.0087699     -5.0064781     -2.1107336      1.0534818      17718.837    
    193000   0.98884817    -4.9814021     -2.1607268      1.0152551      17785.111    
    194000   0.99093706    -4.9932232     -2.2443961      0.95947821     17764.005    
    195000   0.99392482    -4.9912513     -2.0931382      1.0726146      17712.83     
    196000   1.0078389     -5.0008439     -2.1407047      1.0282924      17703.773    
    197000   1.0004618     -4.9857545     -2.2146577      0.96247311     17820.712    
    198000   0.99874702    -4.991356      -2.2904643      0.91226585     17800.632    
    199000   1.0013077     -4.9685209     -2.1953228      0.96140314     17852.234    
    200000   0.99783707    -4.9795658     -2.1900072      0.97914532     17826.094    
    201000   1.0068563     -5.0086565     -2.1036885      1.0629069      17715.321    
    202000   0.9976172     -5.0057637     -2.1613851      1.0247339      17759.594    
    203000   0.99561575    -5.0094159     -2.1634928      1.0323692      17687.701    
    204000   0.99604458    -4.9847709     -2.0664344      1.0829346      17756.506    
    205000   1.0123667     -4.9826169     -2.1474512      0.99708786     17827.747    
    206000   0.99855695    -4.9971777     -2.2013966      0.9896786      17706.52     
    207000   0.9913717     -4.9739374     -2.1669998      1.001884       17786.358    
    208000   0.99227302    -4.9826675     -2.0932583      1.0657603      17747.878    
    209000   1.0133019     -4.9845627     -1.9922451      1.1219267      17718.129    
    210000   0.99741476    -4.9855013     -2.1686656      1.0031629      17774.909    
Loop time of 339.851 on 8 procs for 100000 steps with 13500 atoms

Performance: 127114.649 tau/day, 294.247 timesteps/s, 3.972 Matom-step/s
89.4% CPU use with 8 MPI tasks x no OpenMP threads

MPI task timing breakdown:
Section |  min time  |  avg time  |  max time  |%varavg| %total
---------------------------------------------------------------
Pair    | 135.98     | 142.65     | 150.35     |  34.3 | 41.97
Neigh   | 62.53      | 64.59      | 67.895     |  18.9 | 19.01
Comm    | 66.094     | 77.462     | 86.338     |  65.4 | 22.79
Output  | 0.51424    | 0.54118    | 0.56775    |   2.4 |  0.16
Modify  | 44.294     | 44.8       | 45.377     |   6.6 | 13.18
Other   |            | 9.807      |            |       |  2.89

Nlocal:         1687.5 ave        1713 max        1654 min
Histogram: 1 0 1 2 0 0 1 0 0 3
Nghost:        4115.75 ave        4164 max        4076 min
Histogram: 2 1 1 0 0 0 2 0 1 1
Neighs:        96567.6 ave      101609 max       92727 min
Histogram: 2 0 1 2 0 0 1 0 1 1

Total # of neighbors = 772541
Ave neighs/atom = 57.225259
Neighbor list builds = 14787
Dangerous builds = 0
Total wall time: 0:09:54
