LAMMPS data file - polymer chains

10000 atoms
9500 bonds
0 angles
0 dihedrals
0 impropers

1 atom types
1 bond types

-20 20 xlo xhi
-20 20 ylo yhi
-20 20 zlo zhi

Masses

1 1.0

Atoms # molecular

1 1 1 2.027086 2.280355 5.629744
2 1 1 2.997086 2.135900 5.486303
3 1 1 3.967086 2.194061 5.569848
4 1 1 4.937086 2.253964 5.585448
5 1 1 5.907086 2.280216 5.518025
6 1 1 6.877086 2.194815 5.663445
7 1 1 7.847086 2.219734 5.552202
8 1 1 8.817086 2.258287 5.640168
9 1 1 9.787086 2.214253 5.532746
10 1 1 10.757086 2.213527 5.595198
11 1 1 11.727086 2.260746 5.619817
12 1 1 12.697086 2.296522 5.564820
13 1 1 13.667086 2.112958 5.635323
14 1 1 14.637086 2.110524 5.510404
15 1 1 15.607086 2.277318 5.522163
16 1 1 16.577086 2.295967 5.654295
17 1 1 17.547086 2.127860 5.601449
18 1 1 18.517086 2.186327 5.596307
19 1 1 19.487086 2.188075 5.635694
20 1 1 20.457086 2.184337 5.612843
21 2 1 2.047839 1.273559 2.112994
22 2 1 3.017839 1.216259 2.079059
23 2 1 3.987839 1.216394 2.012215
24 2 1 4.957839 1.129912 2.070087
25 2 1 5.927839 1.304570 2.042733
26 2 1 6.897839 1.129406 2.045417
27 2 1 7.867839 1.275862 2.070054
28 2 1 8.837839 1.323918 2.126604
29 2 1 9.807839 1.322045 2.089853
30 2 1 10.777839 1.193859 2.099162
31 2 1 11.747839 1.253716 2.093857
32 2 1 12.717839 1.249721 2.073883
33 2 1 13.687839 1.255882 2.165851
34 2 1 14.657839 1.172469 2.166747
35 2 1 15.627839 1.192794 2.177468
36 2 1 16.597839 1.245911 2.124110
37 2 1 17.567839 1.259552 2.093059
38 2 1 18.537839 1.261206 2.166502
39 2 1 19.507839 1.189403 2.158975
40 2 1 20.477839 1.237775 2.044654
41 3 1 -2.871485 2.132656 -0.398234
42 3 1 -1.901485 2.129459 -0.492184
43 3 1 -0.931485 2.081790 -0.540041
44 3 1 0.038515 2.088475 -0.483635
45 3 1 1.008515 1.946118 -0.549568
46 3 1 1.978515 2.067361 -0.508413
47 3 1 2.948515 2.023122 -0.529512
48 3 1 3.918515 1.958522 -0.567565
49 3 1 4.888515 1.957489 -0.441492
50 3 1 5.858515 2.043292 -0.392244
51 3 1 6.828515 2.023500 -0.376287
52 3 1 7.798515 2.008118 -0.387644
53 3 1 8.768515 1.952092 -0.500611
54 3 1 9.738515 2.077107 -0.483623
55 3 1 10.708515 1.943311 -0.561028
56 3 1 11.678515 2.056344 -0.535336
57 3 1 12.648515 2.063698 -0.532211
58 3 1 13.618515 2.100273 -0.415826
59 3 1 14.588515 2.121870 -0.381693
60 3 1 15.558515 1.988379 -0.530540
61 4 1 7.367805 5.233378 2.464465
62 4 1 8.337805 5.217655 2.416737
63 4 1 9.307805 5.282613 2.370868
64 4 1 10.277805 5.196603 2.314760
65 4 1 11.247805 5.209119 2.338794
66 4 1 12.217805 5.265721 2.375243
67 4 1 13.187805 5.211136 2.372826
68 4 1 14.157805 5.247453 2.420808
69 4 1 15.127805 5.235705 2.328923
70 4 1 16.097805 5.250942 2.393323
71 4 1 17.067805 5.169212 2.335879
72 4 1 18.037805 5.155462 2.359899
73 4 1 19.007805 5.331292 2.482865
74 4 1 19.977805 5.215893 2.449655
75 4 1 20.947805 5.248343 2.469991
76 4 1 21.917805 5.160477 2.354506
77 4 1 22.887805 5.310966 2.413327
78 4 1 23.857805 5.348671 2.390671
79 4 1 24.827805 5.159580 2.488858
80 4 1 25.797805 5.271169 2.371367
81 5 1 8.886688 4.397320 9.726732
82 5 1 9.856688 4.319536 9.754832
83 5 1 10.826688 4.232142 9.698535
84 5 1 11.796688 4.276946 9.809903
85 5 1 12.766688 4.222717 9.665572
86 5 1 13.736688 4.379562 9.686725
87 5 1 14.706688 4.353735 9.755775
88 5 1 15.676688 4.248598 9.751565
89 5 1 16.646688 4.382621 9.719271
90 5 1 17.616688 4.291583 9.733681
91 5 1 18.586688 4.399815 9.709830
92 5 1 19.556688 4.402789 9.639441
93 5 1 20.526688 4.305434 9.680464
94 5 1 21.496688 4.233901 9.615944
95 5 1 22.466688 4.329553 9.644446
96 5 1 23.436688 4.241098 9.646042
97 5 1 24.406688 4.390551 9.738606
98 5 1 25.376688 4.255248 9.738956
99 5 1 26.346688 4.268311 9.673330
100 5 1 27.316688 4.248145 9.664367
101 6 1 -4.628763 -7.027457 0.863223
102 6 1 -3.658763 -6.958098 0.894352
103 6 1 -2.688763 -6.906929 0.721610
104 6 1 -1.718763 -6.991799 0.899187
105 6 1 -0.748763 -7.082446 0.866816
106 6 1 0.221237 -6.977242 0.866000
107 6 1 1.191237 -7.024720 0.804807
108 6 1 2.161237 -6.910241 0.806286
109 6 1 3.131237 -7.029652 0.730510
110 6 1 4.101237 -6.897296 0.712017
111 6 1 5.071237 -7.061593 0.739287
112 6 1 6.041237 -6.992033 0.879934
113 6 1 7.011237 -6.961998 0.875435
114 6 1 7.981237 -6.970015 0.804007
115 6 1 8.951237 -6.996950 0.722477
116 6 1 9.921237 -7.056248 0.892615
117 6 1 10.891237 -6.916128 0.800455
118 6 1 11.861237 -6.900690 0.846145
119 6 1 12.831237 -6.900214 0.730857
120 6 1 13.801237 -6.943689 0.826575
121 7 1 -3.619732 -9.150086 1.473339
122 7 1 -2.649732 -9.105434 1.608472
123 7 1 -1.679732 -9.244556 1.444385
124 7 1 -0.709732 -9.096586 1.538470
125 7 1 0.260268 -9.237049 1.545872
126 7 1 1.230268 -9.167018 1.473400
127 7 1 2.200268 -9.244797 1.472015
128 7 1 3.170268 -9.156721 1.523357
129 7 1 4.140268 -9.110984 1.441603
130 7 1 5.110268 -9.257592 1.552176
131 7 1 6.080268 -9.131229 1.535086
132 7 1 7.050268 -9.209201 1.548161
133 7 1 8.020268 -9.243322 1.516305
134 7 1 8.990268 -9.269265 1.464348
135 7 1 9.960268 -9.142596 1.561399
136 7 1 10.930268 -9.091235 1.427874
137 7 1 11.900268 -9.214069 1.515788
138 7 1 12.870268 -9.268818 1.422483
139 7 1 13.840268 -9.132926 1.508294
140 7 1 14.810268 -9.090935 1.539838
141 8 1 0.438213 6.566003 -0.517511
142 8 1 1.408213 6.598871 -0.392742
143 8 1 2.378213 6.586024 -0.472104
144 8 1 3.348213 6.579440 -0.482308
145 8 1 4.318213 6.689982 -0.523751
146 8 1 5.288213 6.578812 -0.366948
147 8 1 6.258213 6.702510 -0.520750
148 8 1 7.228213 6.750311 -0.388782
149 8 1 8.198213 6.563072 -0.469007
150 8 1 9.168213 6.604162 -0.435650
151 8 1 10.138213 6.675762 -0.467194
152 8 1 11.108213 6.584316 -0.402670
153 8 1 12.078213 6.666524 -0.464102
154 8 1 13.048213 6.656901 -0.372638
155 8 1 14.018213 6.584891 -0.479717
156 8 1 14.988213 6.637607 -0.431010
157 8 1 15.958213 6.575891 -0.455517
158 8 1 16.928213 6.620483 -0.474130
159 8 1 17.898213 6.669599 -0.394481
160 8 1 18.868213 6.673901 -0.463469
161 9 1 0.971352 -0.097947 -0.044030
162 9 1 1.941352 0.075635 -0.101104
163 9 1 2.911352 -0.032676 -0.170533
164 9 1 3.881352 0.066443 -0.090177
165 9 1 4.851352 -0.007013 -0.180577
166 9 1 5.821352 -0.100304 -0.189700
167 9 1 6.791352 -0.016530 -0.038395
168 9 1 7.761352 0.073389 -0.124945
169 9 1 8.731352 -0.082148 -0.225058
170 9 1 9.701352 -0.035090 -0.123620
171 9 1 10.671352 -0.074269 -0.149328
172 9 1 11.641352 0.009874 -0.200971
173 9 1 12.611352 0.002247 -0.158371
174 9 1 13.581352 -0.091935 -0.204188
175 9 1 14.551352 -0.087041 -0.084068
176 9 1 15.521352 -0.012342 -0.200303
177 9 1 16.491352 0.040228 -0.184533
178 9 1 17.461352 -0.087488 -0.097824
179 9 1 18.431352 0.041461 -0.204960
180 9 1 19.401352 -0.088455 -0.208276
181 10 1 -9.859756 -5.713116 7.783022
182 10 1 -8.889756 -5.771123 7.609753
183 10 1 -7.919756 -5.758774 7.653521
184 10 1 -6.949756 -5.847955 7.651952
185 10 1 -5.979756 -5.690121 7.727358
186 10 1 -5.009756 -5.785439 7.624312
187 10 1 -4.039756 -5.752651 7.612452
188 10 1 -3.069756 -5.750424 7.791897
189 10 1 -2.099756 -5.711112 7.746061
190 10 1 -1.129756 -5.805660 7.768631
191 10 1 -0.159756 -5.788717 7.632264
192 10 1 0.810244 -5.761913 7.627027
193 10 1 1.780244 -5.806766 7.682397
194 10 1 2.750244 -5.844376 7.746728
195 10 1 3.720244 -5.824845 7.779700
196 10 1 4.690244 -5.709365 7.778741
197 10 1 5.660244 -5.742595 7.775083
198 10 1 6.630244 -5.859873 7.779692
199 10 1 7.600244 -5.793887 7.613449
200 10 1 8.570244 -5.836363 7.720627
201 11 1 1.761167 2.389201 6.225876
202 11 1 2.731167 2.354389 6.262710
203 11 1 3.701167 2.306405 6.104982
204 11 1 4.671167 2.328403 6.185860
205 11 1 5.641167 2.384961 6.109782
206 11 1 6.611167 2.243117 6.204649
207 11 1 7.581167 2.298890 6.117681
208 11 1 8.551167 2.368193 6.113440
209 11 1 9.521167 2.215069 6.169683
210 11 1 10.491167 2.264779 6.168657
211 11 1 11.461167 2.349907 6.172028
212 11 1 12.431167 2.280075 6.294547
213 11 1 13.401167 2.403757 6.218495
214 11 1 14.371167 2.240160 6.154133
215 11 1 15.341167 2.321978 6.215045
216 11 1 16.311167 2.265144 6.157389
217 11 1 17.281167 2.268210 6.263326
218 11 1 18.251167 2.364085 6.255757
219 11 1 19.221167 2.306752 6.131418
220 11 1 20.191167 2.375001 6.169171
221 12 1 -5.981133 5.841141 2.561431
222 12 1 -5.011133 5.901971 2.636744
223 12 1 -4.041133 5.869077 2.665043
224 12 1 -3.071133 6.027635 2.641379
225 12 1 -2.101133 6.004078 2.658264
226 12 1 -1.131133 5.849508 2.693312
227 12 1 -0.161133 5.885676 2.671174
228 12 1 0.808867 6.002184 2.634576
229 12 1 1.778867 5.870097 2.730312
230 12 1 2.748867 5.974943 2.681570
231 12 1 3.718867 5.926826 2.615595
232 12 1 4.688867 5.956466 2.640397
233 12 1 5.658867 5.912121 2.622699
234 12 1 6.628867 6.012500 2.576527
235 12 1 7.598867 5.844443 2.609297
236 12 1 8.568867 5.958405 2.673440
237 12 1 9.538867 5.924198 2.750758
238 12 1 10.508867 5.921521 2.627220
239 12 1 11.478867 6.018270 2.613417
240 12 1 12.448867 6.005666 2.637308
241 13 1 5.932140 -6.295704 -6.888144
242 13 1 6.902140 -6.436190 -6.986891
243 13 1 7.872140 -6.320558 -6.910684
244 13 1 8.842140 -6.286834 -6.888941
245 13 1 9.812140 -6.334143 -7.010678
246 13 1 10.782140 -6.333730 -6.896177
247 13 1 11.752140 -6.417224 -6.897936
248 13 1 12.722140 -6.295381 -7.066324
249 13 1 13.692140 -6.339247 -7.034266
250 13 1 14.662140 -6.325463 -6.922376
251 13 1 15.632140 -6.248811 -7.028823
252 13 1 16.602140 -6.314451 -6.933314
253 13 1 17.572140 -6.321552 -6.998231
254 13 1 18.542140 -6.388276 -7.045289
255 13 1 19.512140 -6.338016 -6.971603
256 13 1 20.482140 -6.327918 -7.008097
257 13 1 21.452140 -6.422507 -6.997199
258 13 1 22.422140 -6.370360 -7.046555
259 13 1 23.392140 -6.408800 -6.890087
260 13 1 24.362140 -6.370379 -6.953904
261 14 1 5.999314 3.756638 7.556811
262 14 1 6.969314 3.727386 7.698674
263 14 1 7.939314 3.638244 7.616665
264 14 1 8.909314 3.600061 7.677946
265 14 1 9.879314 3.613963 7.520793
266 14 1 10.849314 3.679477 7.511606
267 14 1 11.819314 3.600421 7.514972
268 14 1 12.789314 3.698215 7.658319
269 14 1 13.759314 3.676144 7.512792
270 14 1 14.729314 3.606884 7.581253
271 14 1 15.699314 3.773488 7.557714
272 14 1 16.669314 3.780951 7.531633
273 14 1 17.639314 3.598932 7.510061
274 14 1 18.609314 3.656049 7.531002
275 14 1 19.579314 3.604456 7.682119
276 14 1 20.549314 3.647516 7.693282
277 14 1 21.519314 3.766879 7.636595
278 14 1 22.489314 3.756586 7.524125
279 14 1 23.459314 3.722900 7.570871
280 14 1 24.429314 3.609398 7.704224
281 15 1 7.142676 -5.919043 4.487487
282 15 1 8.112676 -5.739957 4.537377
283 15 1 9.082676 -5.843444 4.396965
284 15 1 10.052676 -5.914312 4.405504
285 15 1 11.022676 -5.883321 4.424527
286 15 1 11.992676 -5.888586 4.524635
287 15 1 12.962676 -5.750636 4.400675
288 15 1 13.932676 -5.887452 4.566813
289 15 1 14.902676 -5.852777 4.497864
290 15 1 15.872676 -5.743159 4.470194
291 15 1 16.842676 -5.738589 4.474011
292 15 1 17.812676 -5.852122 4.431880
293 15 1 18.782676 -5.846505 4.496725
294 15 1 19.752676 -5.890638 4.485195
295 15 1 20.722676 -5.903726 4.433224
296 15 1 21.692676 -5.873382 4.564588
297 15 1 22.662676 -5.785023 4.485311
298 15 1 23.632676 -5.876547 4.442952
299 15 1 24.602676 -5.921516 4.433869
300 15 1 25.572676 -5.830861 4.416340
301 16 1 9.841687 -4.487410 -4.171309
302 16 1 10.811687 -4.553711 -4.234624
303 16 1 11.781687 -4.647570 -4.247394
304 16 1 12.751687 -4.676400 -4.329408
305 16 1 13.721687 -4.670505 -4.247766
306 16 1 14.691687 -4.581933 -4.267889
307 16 1 15.661687 -4.514871 -4.141363
308 16 1 16.631687 -4.646450 -4.132420
309 16 1 17.601687 -4.588371 -4.165359
310 16 1 18.571687 -4.501414 -4.148141
311 16 1 19.541687 -4.584036 -4.268673
312 16 1 20.511687 -4.579504 -4.324896
313 16 1 21.481687 -4.675435 -4.159932
314 16 1 22.451687 -4.600478 -4.188378
315 16 1 23.421687 -4.489060 -4.242866
316 16 1 24.391687 -4.525573 -4.319771
317 16 1 25.361687 -4.536697 -4.216172
318 16 1 26.331687 -4.542859 -4.165059
319 16 1 27.301687 -4.520718 -4.175341
320 16 1 28.271687 -4.606856 -4.150147
321 17 1 -4.609785 -6.800686 -7.258056
322 17 1 -3.639785 -6.967942 -7.116554
323 17 1 -2.669785 -6.934504 -7.138534
324 17 1 -1.699785 -6.819358 -7.120667
325 17 1 -0.729785 -6.863298 -7.270168
326 17 1 0.240215 -6.963329 -7.138271
327 17 1 1.210215 -6.856915 -7.230837
328 17 1 2.180215 -6.906486 -7.122768
329 17 1 3.150215 -6.796769 -7.246311
330 17 1 4.120215 -6.797211 -7.216565
331 17 1 5.090215 -6.970533 -7.132891
332 17 1 6.060215 -6.890127 -7.237640
333 17 1 7.030215 -6.784546 -7.085327
334 17 1 8.000215 -6.835211 -7.100316
335 17 1 8.970215 -6.960723 -7.155336
336 17 1 9.940215 -6.828820 -7.129326
337 17 1 10.910215 -6.799430 -7.213414
338 17 1 11.880215 -6.894210 -7.275949
339 17 1 12.850215 -6.843164 -7.121404
340 17 1 13.820215 -6.827425 -7.260117
341 18 1 1.504583 -5.100141 -2.110700
342 18 1 2.474583 -5.081383 -2.207013
343 18 1 3.444583 -5.167841 -2.219814
344 18 1 4.414583 -5.124297 -2.234027
345 18 1 5.384583 -5.161208 -2.149430
346 18 1 6.354583 -5.024231 -2.114739
347 18 1 7.324583 -5.204399 -2.202140
348 18 1 8.294583 -5.049932 -2.114203
349 18 1 9.264583 -5.045236 -2.248875
350 18 1 10.234583 -5.029332 -2.055624
351 18 1 11.204583 -5.061308 -2.063353
352 18 1 12.174583 -5.157324 -2.205694
353 18 1 13.144583 -5.202283 -2.117536
354 18 1 14.114583 -5.200255 -2.061170
355 18 1 15.084583 -5.211504 -2.112878
356 18 1 16.054583 -5.105536 -2.184718
357 18 1 17.024583 -5.122542 -2.145507
358 18 1 17.994583 -5.065882 -2.073553
359 18 1 18.964583 -5.128584 -2.228641
360 18 1 19.934583 -5.046377 -2.218713
361 19 1 2.748559 6.301976 -9.050816
362 19 1 3.718559 6.367499 -9.021382
363 19 1 4.688559 6.243103 -9.001906
364 19 1 5.658559 6.253751 -9.043805
365 19 1 6.628559 6.203146 -9.028284
366 19 1 7.598559 6.356983 -8.875409
367 19 1 8.568559 6.366283 -9.069435
368 19 1 9.538559 6.251770 -9.033366
369 19 1 10.508559 6.244930 -8.950554
370 19 1 11.478559 6.328617 -8.994381
371 19 1 12.448559 6.295713 -9.056428
372 19 1 13.418559 6.330342 -8.886362
373 19 1 14.388559 6.382563 -9.030531
374 19 1 15.358559 6.230325 -8.948313
375 19 1 16.328559 6.339834 -8.929770
376 19 1 17.298559 6.302841 -8.924219
377 19 1 18.268559 6.337155 -9.057969
378 19 1 19.238559 6.335281 -8.921819
379 19 1 20.208559 6.296065 -9.035586
380 19 1 21.178559 6.313306 -8.933798
381 20 1 -6.914866 2.914504 -0.614652
382 20 1 -5.944866 2.887305 -0.643824
383 20 1 -4.974866 2.863837 -0.538391
384 20 1 -4.004866 2.793596 -0.530361
385 20 1 -3.034866 2.784530 -0.687147
386 20 1 -2.064866 2.793891 -0.511816
387 20 1 -1.094866 2.830921 -0.496791
388 20 1 -0.124866 2.856310 -0.675520
389 20 1 0.845134 2.859894 -0.498631
390 20 1 1.815134 2.759738 -0.537398
391 20 1 2.785134 2.803392 -0.622835
392 20 1 3.755134 2.723047 -0.547467
393 20 1 4.725134 2.816369 -0.579930
394 20 1 5.695134 2.781600 -0.572699
395 20 1 6.665134 2.831224 -0.687686
396 20 1 7.635134 2.833121 -0.583678
397 20 1 8.605134 2.764225 -0.537493
398 20 1 9.575134 2.888044 -0.514790
399 20 1 10.545134 2.813708 -0.631616
400 20 1 11.515134 2.870779 -0.500637
401 21 1 4.148352 -7.636286 -7.004290
402 21 1 5.118352 -7.725737 -7.150773
403 21 1 6.088352 -7.687831 -7.025182
404 21 1 7.058352 -7.604111 -6.972352
405 21 1 8.028352 -7.673585 -7.040757
406 21 1 8.998352 -7.654878 -7.160589
407 21 1 9.968352 -7.578862 -7.160482
408 21 1 10.938352 -7.607899 -7.001592
409 21 1 11.908352 -7.747850 -6.995990
410 21 1 12.878352 -7.742025 -7.152003
411 21 1 13.848352 -7.761994 -7.126382
412 21 1 14.818352 -7.717521 -6.970810
413 21 1 15.788352 -7.721100 -7.115134
414 21 1 16.758352 -7.677858 -7.157331
415 21 1 17.728352 -7.584025 -7.039248
416 21 1 18.698352 -7.652651 -7.112795
417 21 1 19.668352 -7.613234 -7.148809
418 21 1 20.638352 -7.747220 -7.025477
419 21 1 21.608352 -7.745709 -7.030707
420 21 1 22.578352 -7.726848 -7.153020
421 22 1 -3.790773 8.922680 0.282732
422 22 1 -2.820773 8.866608 0.261854
423 22 1 -1.850773 8.805917 0.260615
424 22 1 -0.880773 8.950657 0.267111
425 22 1 0.089227 8.906620 0.270537
426 22 1 1.059227 8.766105 0.265288
427 22 1 2.029227 8.882887 0.231509
428 22 1 2.999227 8.885615 0.421100
429 22 1 3.969227 8.934058 0.412964
430 22 1 4.939227 8.931813 0.242930
431 22 1 5.909227 8.827060 0.330822
432 22 1 6.879227 8.927150 0.392120
433 22 1 7.849227 8.830086 0.285408
434 22 1 8.819227 8.926254 0.345078
435 22 1 9.789227 8.900601 0.254540
436 22 1 10.759227 8.843814 0.329843
437 22 1 11.729227 8.886901 0.280147
438 22 1 12.699227 8.779692 0.297358
439 22 1 13.669227 8.760787 0.231072
440 22 1 14.639227 8.861135 0.415738
441 23 1 -7.751072 -2.420020 -8.291995
442 23 1 -6.781072 -2.393754 -8.252671
443 23 1 -5.811072 -2.401798 -8.279495
444 23 1 -4.841072 -2.419781 -8.385798
445 23 1 -3.871072 -2.306116 -8.350802
446 23 1 -2.901072 -2.368936 -8.245420
447 23 1 -1.931072 -2.450414 -8.432519
448 23 1 -0.961072 -2.391240 -8.338460
449 23 1 0.008928 -2.431022 -8.288875
450 23 1 0.978928 -2.468088 -8.328653
451 23 1 1.948928 -2.397119 -8.305678
452 23 1 2.918928 -2.438465 -8.340445
453 23 1 3.888928 -2.293510 -8.431748
454 23 1 4.858928 -2.423829 -8.328427
455 23 1 5.828928 -2.451536 -8.417045
456 23 1 6.798928 -2.424522 -8.374574
457 23 1 7.768928 -2.452452 -8.360983
458 23 1 8.738928 -2.300145 -8.269373
459 23 1 9.708928 -2.484472 -8.332471
460 23 1 10.678928 -2.367549 -8.338954
461 24 1 4.336218 4.048330 -0.943652
462 24 1 5.306218 3.930889 -0.975216
463 24 1 6.276218 4.105794 -0.801639
464 24 1 7.246218 4.030118 -0.871006
465 24 1 8.216218 3.947627 -0.936759
466 24 1 9.186218 3.976579 -0.936015
467 24 1 10.156218 3.935866 -0.880720
468 24 1 11.126218 4.087155 -0.963971
469 24 1 12.096218 3.988855 -0.927918
470 24 1 13.066218 3.997419 -0.813878
471 24 1 14.036218 3.988108 -0.907311
472 24 1 15.006218 3.951267 -0.822236
473 24 1 15.976218 4.039402 -0.808059
474 24 1 16.946218 4.071951 -0.936404
475 24 1 17.916218 4.054525 -0.800957
476 24 1 18.886218 4.045395 -0.938877
477 24 1 19.856218 3.958920 -0.932497
478 24 1 20.826218 4.048457 -0.855139
479 24 1 21.796218 3.942652 -0.820498
480 24 1 22.766218 4.057922 -0.933778
481 25 1 3.630893 -1.870660 1.359585
482 25 1 4.600893 -1.771283 1.247663
483 25 1 5.570893 -1.831882 1.372406
484 25 1 6.540893 -1.796489 1.408406
485 25 1 7.510893 -1.904031 1.333956
486 25 1 8.480893 -1.714177 1.225284
487 25 1 9.450893 -1.858388 1.331236
488 25 1 10.420893 -1.816474 1.271741
489 25 1 11.390893 -1.868681 1.313916
490 25 1 12.360893 -1.812550 1.399928
491 25 1 13.330893 -1.736633 1.220481
492 25 1 14.300893 -1.788241 1.258587
493 25 1 15.270893 -1.774750 1.273104
494 25 1 16.240893 -1.745599 1.218368
495 25 1 17.210893 -1.857713 1.366230
496 25 1 18.180893 -1.824410 1.370152
497 25 1 19.150893 -1.858691 1.378010
498 25 1 20.120893 -1.887647 1.367655
499 25 1 21.090893 -1.734229 1.259122
500 25 1 22.060893 -1.839356 1.240148
501 26 1 8.195129 8.292607 6.972382
502 26 1 9.165129 8.279431 7.037889
503 26 1 10.135129 8.347092 7.026741
504 26 1 11.105129 8.401393 7.069655
505 26 1 12.075129 8.346829 6.895068
506 26 1 13.045129 8.344478 6.967523
507 26 1 14.015129 8.252052 6.926407
508 26 1 14.985129 8.241054 7.080104
509 26 1 15.955129 8.383347 6.995683
510 26 1 16.925129 8.392999 6.992564
511 26 1 17.895129 8.382037 6.965609
512 26 1 18.865129 8.297381 7.068158
513 26 1 19.835129 8.251909 7.043746
514 26 1 20.805129 8.396678 6.995742
515 26 1 21.775129 8.412550 7.035391
516 26 1 22.745129 8.374392 6.993322
517 26 1 23.715129 8.328285 6.909998
518 26 1 24.685129 8.318606 7.031902
519 26 1 25.655129 8.253473 6.941012
520 26 1 26.625129 8.376682 7.008209
521 27 1 1.622997 5.349718 2.944346
522 27 1 2.592997 5.464290 2.894689
523 27 1 3.562997 5.337759 3.029586
524 27 1 4.532997 5.375178 2.864463
525 27 1 5.502997 5.376702 2.933217
526 27 1 6.472997 5.472056 2.897280
527 27 1 7.442997 5.381877 2.988125
528 27 1 8.412997 5.453093 2.992691
529 27 1 9.382997 5.364438 3.004854
530 27 1 10.352997 5.469940 3.025279
531 27 1 11.322997 5.322773 2.973375
532 27 1 12.292997 5.371373 2.983274
533 27 1 13.262997 5.420824 2.948163
534 27 1 14.232997 5.467326 2.899830
535 27 1 15.202997 5.343675 2.941919
536 27 1 16.172997 5.412272 2.862554
537 27 1 17.142997 5.489607 2.987750
538 27 1 18.112997 5.402601 3.021026
539 27 1 19.082997 5.501714 2.935432
540 27 1 20.052997 5.413934 2.926538
541 28 1 -3.265258 -0.065198 1.702706
542 28 1 -2.295258 0.108815 1.582607
543 28 1 -1.325258 0.060700 1.615218
544 28 1 -0.355258 -0.027597 1.600546
545 28 1 0.614742 -0.037105 1.518625
546 28 1 1.584742 -0.071671 1.548828
547 28 1 2.554742 0.040150 1.641720
548 28 1 3.524742 0.018684 1.693630
549 28 1 4.494742 0.092750 1.589001
550 28 1 5.464742 0.066833 1.623077
551 28 1 6.434742 0.071552 1.635616
552 28 1 7.404742 -0.053694 1.550446
553 28 1 8.374742 -0.044268 1.676219
554 28 1 9.344742 0.126089 1.675408
555 28 1 10.314742 0.053846 1.576938
556 28 1 11.284742 0.085584 1.644219
557 28 1 12.254742 0.072879 1.674554
558 28 1 13.224742 -0.029967 1.689012
559 28 1 14.194742 0.048068 1.640344
560 28 1 15.164742 0.107619 1.513822
561 29 1 -1.708185 2.049534 1.954518
562 29 1 -0.738185 2.172255 2.027643
563 29 1 0.231815 2.162395 1.978477
564 29 1 1.201815 2.102158 1.989101
565 29 1 2.171815 2.073185 2.078760
566 29 1 3.141815 2.136696 2.059767
567 29 1 4.111815 2.186691 2.085796
568 29 1 5.081815 2.029672 2.130874
569 29 1 6.051815 2.087128 2.024166
570 29 1 7.021815 2.120278 1.983311
571 29 1 7.991815 2.098638 1.988448
572 29 1 8.961815 2.209351 2.123214
573 29 1 9.931815 2.045121 1.935218
574 29 1 10.901815 2.064739 2.021838
575 29 1 11.871815 2.087321 1.986263
576 29 1 12.841815 2.070345 2.061557
577 29 1 13.811815 2.085610 1.936526
578 29 1 14.781815 2.170475 2.084477
579 29 1 15.751815 2.031454 2.128607
580 29 1 16.721815 2.162765 2.043191
581 30 1 2.474178 5.269034 -1.042410
582 30 1 3.444178 5.263987 -0.932738
583 30 1 4.414178 5.243127 -1.031020
584 30 1 5.384178 5.365981 -0.930571
585 30 1 6.354178 5.371750 -0.945186
586 30 1 7.324178 5.308225 -0.937128
587 30 1 8.294178 5.365040 -1.027018
588 30 1 9.264178 5.319290 -0.983886
589 30 1 10.234178 5.381823 -0.897481
590 30 1 11.204178 5.264737 -0.882872
591 30 1 12.174178 5.224942 -0.915453
592 30 1 13.144178 5.274563 -0.990569
593 30 1 14.114178 5.327271 -1.015115
594 30 1 15.084178 5.289093 -0.925072
595 30 1 16.054178 5.260896 -0.985118
596 30 1 17.024178 5.253128 -0.924559
597 30 1 17.994178 5.378903 -0.919306
598 30 1 18.964178 5.280855 -0.918977
599 30 1 19.934178 5.281149 -0.911742
600 30 1 20.904178 5.206878 -0.910845
601 31 1 2.893145 8.978329 1.480892
602 31 1 3.863145 8.989147 1.429940
603 31 1 4.833145 8.889205 1.476371
604 31 1 5.803145 8.988221 1.370318
605 31 1 6.773145 8.895358 1.492548
606 31 1 7.743145 8.866837 1.412734
607 31 1 8.713145 8.962589 1.456027
608 31 1 9.683145 8.974167 1.431957
609 31 1 10.653145 8.929385 1.431719
610 31 1 11.623145 8.956427 1.399443
611 31 1 12.593145 8.916496 1.381374
612 31 1 13.563145 8.981214 1.431721
613 31 1 14.533145 8.991820 1.400863
614 31 1 15.503145 8.861225 1.408217
615 31 1 16.473145 8.991321 1.457922
616 31 1 17.443145 8.832057 1.359325
617 31 1 18.413145 8.990756 1.415319
618 31 1 19.383145 8.845429 1.408473
619 31 1 20.353145 8.898334 1.372263
620 31 1 21.323145 9.002658 1.442248
621 32 1 6.420918 -9.924261 -7.190078
622 32 1 7.390918 -9.868294 -7.198701
623 32 1 8.360918 -9.807434 -7.158714
624 32 1 9.330918 -9.830530 -7.292033
625 32 1 10.300918 -9.835017 -7.225739
626 32 1 11.270918 -9.789854 -7.173591
627 32 1 12.240918 -9.742130 -7.336932
628 32 1 13.210918 -9.880823 -7.151357
629 32 1 14.180918 -9.892081 -7.269004
630 32 1 15.150918 -9.894392 -7.329074
631 32 1 16.120918 -9.833548 -7.332704
632 32 1 17.090918 -9.860034 -7.345669
633 32 1 18.060918 -9.850525 -7.279120
634 32 1 19.030918 -9.914672 -7.151109
635 32 1 20.000918 -9.800909 -7.192037
636 32 1 20.970918 -9.745521 -7.227467
637 32 1 21.940918 -9.885101 -7.234756
638 32 1 22.910918 -9.767156 -7.308926
639 32 1 23.880918 -9.922219 -7.154500
640 32 1 24.850918 -9.899764 -7.297052
641 33 1 -3.626921 -8.039273 9.106854
642 33 1 -2.656921 -8.041599 8.937464
643 33 1 -1.686921 -8.148773 9.059725
644 33 1 -0.716921 -8.166270 9.082628
645 33 1 0.253079 -8.167882 9.064493
646 33 1 1.223079 -8.011420 8.944949
647 33 1 2.193079 -7.984094 8.969235
648 33 1 3.163079 -8.120396 9.043843
649 33 1 4.133079 -7.999740 9.017408
650 33 1 5.103079 -8.013552 8.921619
651 33 1 6.073079 -8.120798 8.932990
652 33 1 7.043079 -8.018957 9.079384
653 33 1 8.013079 -7.991240 8.956717
654 33 1 8.983079 -8.178250 8.999155
655 33 1 9.953079 -8.069057 8.984210
656 33 1 10.923079 -8.128845 9.003398
657 33 1 11.893079 -8.005186 9.006042
658 33 1 12.863079 -8.130778 9.029314
659 33 1 13.833079 -8.099185 8.924565
660 33 1 14.803079 -8.122563 8.992406
661 34 1 -0.593802 -0.949418 2.040051
662 34 1 0.376198 -1.059566 2.023152
663 34 1 1.346198 -0.944412 2.148915
664 34 1 2.316198 -0.878651 2.126514
665 34 1 3.286198 -1.044707 2.051145
666 34 1 4.256198 -1.000387 2.107299
667 34 1 5.226198 -0.989965 2.116815
668 34 1 6.196198 -0.984109 2.105164
669 34 1 7.166198 -0.879607 2.017602
670 34 1 8.136198 -1.026657 2.114220
671 34 1 9.106198 -0.959921 2.032658
672 34 1 10.076198 -0.891261 2.174250
673 34 1 11.046198 -1.044510 2.085380
674 34 1 12.016198 -1.024037 2.020619
675 34 1 12.986198 -1.028877 2.101946
676 34 1 13.956198 -0.944631 1.990440
677 34 1 14.926198 -0.952598 2.101324
678 34 1 15.896198 -1.052833 2.127655
679 34 1 16.866198 -0.933308 2.066911
680 34 1 17.836198 -1.052982 2.114764
681 35 1 -8.672297 -0.757458 1.540388
682 35 1 -7.702297 -0.667220 1.544396
683 35 1 -6.732297 -0.750308 1.472766
684 35 1 -5.762297 -0.736124 1.468998
685 35 1 -4.792297 -0.722015 1.456413
686 35 1 -3.822297 -0.677758 1.405641
687 35 1 -2.852297 -0.762195 1.435950
688 35 1 -1.882297 -0.760850 1.513957
689 35 1 -0.912297 -0.787323 1.451333
690 35 1 0.057703 -0.728924 1.387590
691 35 1 1.027703 -0.747689 1.548302
692 35 1 1.997703 -0.826421 1.439599
693 35 1 2.967703 -0.818305 1.538979
694 35 1 3.937703 -0.793296 1.383641
695 35 1 4.907703 -0.686735 1.555125
696 35 1 5.877703 -0.832108 1.380564
697 35 1 6.847703 -0.647735 1.471303
698 35 1 7.817703 -0.769372 1.398826
699 35 1 8.787703 -0.701050 1.473958
700 35 1 9.757703 -0.829293 1.382009
701 36 1 1.178031 -7.156140 -1.551309
702 36 1 2.148031 -7.314170 -1.568689
703 36 1 3.118031 -7.259856 -1.585542
704 36 1 4.088031 -7.201866 -1.443196
705 36 1 5.058031 -7.211348 -1.486206
706 36 1 6.028031 -7.230695 -1.573989
707 36 1 6.998031 -7.214874 -1.440713
708 36 1 7.968031 -7.147708 -1.396440
709 36 1 8.938031 -7.280941 -1.465193
710 36 1 9.908031 -7.282405 -1.491912
711 36 1 10.878031 -7.209998 -1.549152
712 36 1 11.848031 -7.166735 -1.556780
713 36 1 12.818031 -7.282948 -1.391739
714 36 1 13.788031 -7.190868 -1.478206
715 36 1 14.758031 -7.147857 -1.430318
716 36 1 15.728031 -7.143497 -1.395181
717 36 1 16.698031 -7.325195 -1.508723
718 36 1 17.668031 -7.328529 -1.561182
719 36 1 18.638031 -7.274945 -1.436603
720 36 1 19.608031 -7.226077 -1.571618
721 37 1 7.955273 9.643516 6.246150
722 37 1 8.925273 9.801113 6.261896
723 37 1 9.895273 9.674702 6.211728
724 37 1 10.865273 9.791170 6.148665
725 37 1 11.835273 9.789482 6.241630
726 37 1 12.805273 9.689855 6.158463
727 37 1 13.775273 9.694593 6.287854
728 37 1 14.745273 9.756608 6.172635
729 37 1 15.715273 9.625165 6.248707
730 37 1 16.685273 9.757230 6.186098
731 37 1 17.655273 9.817479 6.144993
732 37 1 18.625273 9.766532 6.182815
733 37 1 19.595273 9.769534 6.251258
734 37 1 20.565273 9.632145 6.291536
735 37 1 21.535273 9.674420 6.127169
736 37 1 22.505273 9.620776 6.211348
737 37 1 23.475273 9.690157 6.236748
738 37 1 24.445273 9.647982 6.255571
739 37 1 25.415273 9.705641 6.230330
740 37 1 26.385273 9.814308 6.268747
741 38 1 7.821308 -6.628867 -9.512045
742 38 1 8.791308 -6.636849 -9.487531
743 38 1 9.761308 -6.489818 -9.589241
744 38 1 10.731308 -6.582460 -9.639842
745 38 1 11.701308 -6.605207 -9.541110
746 38 1 12.671308 -6.563606 -9.532107
747 38 1 13.641308 -6.597256 -9.575658
748 38 1 14.611308 -6.577240 -9.528241
749 38 1 15.581308 -6.664477 -9.485466
750 38 1 16.551308 -6.624090 -9.515785
751 38 1 17.521308 -6.539526 -9.550375
752 38 1 18.491308 -6.495779 -9.558838
753 38 1 19.461308 -6.605823 -9.571396
754 38 1 20.431308 -6.503333 -9.650190
755 38 1 21.401308 -6.577219 -9.523625
756 38 1 22.371308 -6.644281 -9.556555
757 38 1 23.341308 -6.481062 -9.581312
758 38 1 24.311308 -6.579525 -9.577241
759 38 1 25.281308 -6.574828 -9.561456
760 38 1 26.251308 -6.645882 -9.495565
761 39 1 -0.616100 -4.942183 3.051066
762 39 1 0.353900 -5.112806 3.003270
763 39 1 1.323900 -5.088037 3.125995
764 39 1 2.293900 -5.120904 3.090353
765 39 1 3.263900 -5.033364 3.010505
766 39 1 4.233900 -5.040524 3.169717
767 39 1 5.203900 -5.115627 3.075451
768 39 1 6.173900 -5.085205 3.187735
769 39 1 7.143900 -5.121177 3.137609
770 39 1 8.113900 -5.129699 3.094983
771 39 1 9.083900 -4.950193 3.031109
772 39 1 10.053900 -5.083570 3.119482
773 39 1 11.023900 -5.044864 3.133330
774 39 1 11.993900 -4.932541 3.147423
775 39 1 12.963900 -5.015040 3.094437
776 39 1 13.933900 -5.061649 3.197403
777 39 1 14.903900 -5.064002 3.059609
778 39 1 15.873900 -5.086545 3.141524
779 39 1 16.843900 -5.029193 3.169835
780 39 1 17.813900 -4.959944 3.152359
781 40 1 -3.107981 6.536245 1.379187
782 40 1 -2.137981 6.606432 1.439747
783 40 1 -1.167981 6.517569 1.407669
784 40 1 -0.197981 6.609322 1.503449
785 40 1 0.772019 6.490957 1.401997
786 40 1 1.742019 6.628046 1.410470
787 40 1 2.712019 6.536723 1.529552
788 40 1 3.682019 6.445432 1.523445
789 40 1 4.652019 6.504929 1.407704
790 40 1 5.622019 6.521357 1.461806
791 40 1 6.592019 6.487978 1.474003
792 40 1 7.562019 6.498495 1.430149
793 40 1 8.532019 6.573661 1.542497
794 40 1 9.502019 6.454983 1.528181
795 40 1 10.472019 6.560756 1.490001
796 40 1 11.442019 6.469386 1.374033
797 40 1 12.412019 6.464813 1.430252
798 40 1 13.382019 6.508836 1.485274
799 40 1 14.352019 6.499763 1.507862
800 40 1 15.322019 6.445821 1.425251
801 41 1 5.182380 5.007887 3.638690
802 41 1 6.152380 4.937717 3.695901
803 41 1 7.122380 4.945826 3.621601
804 41 1 8.092380 5.012138 3.550133
805 41 1 9.062380 4.954560 3.720635
806 41 1 10.032380 5.102451 3.674427
807 41 1 11.002380 5.078421 3.584709
808 41 1 11.972380 5.035186 3.592061
809 41 1 12.942380 4.964394 3.721663
810 41 1 13.912380 4.999054 3.687804
811 41 1 14.882380 5.109655 3.720374
812 41 1 15.852380 5.013449 3.544454
813 41 1 16.822380 5.039796 3.724788
814 41 1 17.792380 4.920793 3.585672
815 41 1 18.762380 5.060926 3.628093
816 41 1 19.732380 4.956766 3.622202
817 41 1 20.702380 4.995970 3.570041
818 41 1 21.672380 5.035381 3.619594
819 41 1 22.642380 4.967208 3.632541
820 41 1 23.612380 5.019920 3.589429
821 42 1 0.288946 6.040326 3.701797
822 42 1 1.258946 6.096010 3.555851
823 42 1 2.228946 6.074042 3.535402
824 42 1 3.198946 6.039974 3.573070
825 42 1 4.168946 6.027683 3.694469
826 42 1 5.138946 6.135508 3.719043
827 42 1 6.108946 6.050434 3.714829
828 42 1 7.078946 5.975393 3.680238
829 42 1 8.048946 5.975136 3.706731
830 42 1 9.018946 5.982664 3.549976
831 42 1 9.988946 6.028738 3.702352
832 42 1 10.958946 6.105927 3.586996
833 42 1 11.928946 6.077915 3.589032
834 42 1 12.898946 6.092319 3.653341
835 42 1 13.868946 6.019668 3.689807
836 42 1 14.838946 6.117071 3.656435
837 42 1 15.808946 6.103683 3.676732
838 42 1 16.778946 6.036249 3.620722
839 42 1 17.748946 6.131966 3.567949
840 42 1 18.718946 6.058598 3.564005
841 43 1 -9.072030 8.219081 -5.958871
842 43 1 -8.102030 8.314884 -5.939956
843 43 1 -7.132030 8.186981 -5.821938
844 43 1 -6.162030 8.324790 -5.867616
845 43 1 -5.192030 8.162532 -5.884095
846 43 1 -4.222030 8.209483 -5.966327
847 43 1 -3.252030 8.299115 -5.970982
848 43 1 -2.282030 8.332939 -5.898211
849 43 1 -1.312030 8.193537 -5.862545
850 43 1 -0.342030 8.334043 -5.976559
851 43 1 0.627970 8.329644 -5.855227
852 43 1 1.597970 8.336846 -5.970811
853 43 1 2.567970 8.242737 -5.954353
854 43 1 3.537970 8.173977 -5.795454
855 43 1 4.507970 8.345082 -5.963645
856 43 1 5.477970 8.159608 -5.789252
857 43 1 6.447970 8.328769 -5.815667
858 43 1 7.417970 8.321786 -5.811671
859 43 1 8.387970 8.286141 -5.960280
860 43 1 9.357970 8.224455 -5.876216
861 44 1 9.453108 1.594307 -9.167223
862 44 1 10.423108 1.604956 -9.241221
863 44 1 11.393108 1.670880 -9.289302
864 44 1 12.363108 1.683573 -9.256546
865 44 1 13.333108 1.694130 -9.263986
866 44 1 14.303108 1.710720 -9.256767
867 44 1 15.273108 1.565984 -9.312501
868 44 1 16.243108 1.688563 -9.181192
869 44 1 17.213108 1.645258 -9.323198
870 44 1 18.183108 1.600826 -9.209086
871 44 1 19.153108 1.728847 -9.340102
872 44 1 20.123108 1.641843 -9.339386
873 44 1 21.093108 1.669142 -9.274597
874 44 1 22.063108 1.730650 -9.271889
875 44 1 23.033108 1.689703 -9.345665
876 44 1 24.003108 1.635714 -9.179908
877 44 1 24.973108 1.572618 -9.352559
878 44 1 25.943108 1.607543 -9.172262
879 44 1 26.913108 1.567111 -9.309028
880 44 1 27.883108 1.647597 -9.242798
881 45 1 0.421021 6.236891 -8.984588
882 45 1 1.391021 6.261662 -9.098582
883 45 1 2.361021 6.279981 -9.074144
884 45 1 3.331021 6.230375 -9.156463
885 45 1 4.301021 6.179346 -9.166202
886 45 1 5.271021 6.272519 -9.102071
887 45 1 6.241021 6.304206 -9.142726
888 45 1 7.211021 6.279887 -9.138498
889 45 1 8.181021 6.161035 -8.995360
890 45 1 9.151021 6.160278 -9.042304
891 45 1 10.121021 6.243064 -9.053223
892 45 1 11.091021 6.208023 -9.023724
893 45 1 12.061021 6.297822 -9.134179
894 45 1 13.031021 6.182693 -8.998930
895 45 1 14.001021 6.332252 -9.099442
896 45 1 14.971021 6.187347 -9.104540
897 45 1 15.941021 6.207941 -9.012753
898 45 1 16.911021 6.240304 -9.153330
899 45 1 17.881021 6.306490 -9.075952
900 45 1 18.851021 6.221355 -8.994097
901 46 1 4.224765 -2.107182 3.229599
902 46 1 5.194765 -2.051067 3.136202
903 46 1 6.164765 -1.953164 3.225396
904 46 1 7.134765 -1.983834 3.245804
905 46 1 8.104765 -2.038044 3.107846
906 46 1 9.074765 -1.961658 3.292648
907 46 1 10.044765 -1.949668 3.281102
908 46 1 11.014765 -2.102468 3.183183
909 46 1 11.984765 -1.973037 3.126761
910 46 1 12.954765 -1.957117 3.221009
911 46 1 13.924765 -2.078530 3.238916
912 46 1 14.894765 -2.085925 3.196813
913 46 1 15.864765 -1.976117 3.157700
914 46 1 16.834765 -2.066821 3.273361
915 46 1 17.804765 -1.951054 3.153748
916 46 1 18.774765 -2.089298 3.264127
917 46 1 19.744765 -2.071751 3.235503
918 46 1 20.714765 -1.948066 3.099836
919 46 1 21.684765 -2.065947 3.180256
920 46 1 22.654765 -2.101196 3.273884
921 47 1 -1.593309 -6.282242 -2.868143
922 47 1 -0.623309 -6.467829 -2.824073
923 47 1 0.346691 -6.289026 -2.917866
924 47 1 1.316691 -6.389791 -3.006539
925 47 1 2.286691 -6.350943 -2.929930
926 47 1 3.256691 -6.415242 -2.936037
927 47 1 4.226691 -6.291452 -2.918910
928 47 1 5.196691 -6.465913 -2.983655
929 47 1 6.166691 -6.443831 -2.948948
930 47 1 7.136691 -6.474717 -2.929724
931 47 1 8.106691 -6.439032 -2.841116
932 47 1 9.076691 -6.302717 -2.933491
933 47 1 10.046691 -6.442487 -2.912466
934 47 1 11.016691 -6.388884 -3.010950
935 47 1 11.986691 -6.353335 -2.870944
936 47 1 12.956691 -6.292193 -2.953328
937 47 1 13.926691 -6.338964 -2.824077
938 47 1 14.896691 -6.440529 -2.858484
939 47 1 15.866691 -6.462932 -2.832341
940 47 1 16.836691 -6.438040 -2.907546
941 48 1 4.661657 4.920548 1.968214
942 48 1 5.631657 4.931842 1.891451
943 48 1 6.601657 5.046058 1.938379
944 48 1 7.571657 4.909360 1.926391
945 48 1 8.541657 5.005753 2.016628
946 48 1 9.511657 5.001576 2.014303
947 48 1 10.481657 4.850345 1.951538
948 48 1 11.451657 4.989057 2.034341
949 48 1 12.421657 4.926055 1.911165
950 48 1 13.391657 4.910266 1.887352
951 48 1 14.361657 4.989596 1.927761
952 48 1 15.331657 4.876006 1.951387
953 48 1 16.301657 4.939823 1.987339
954 48 1 17.271657 4.878494 1.971014
955 48 1 18.241657 4.855204 1.903099
956 48 1 19.211657 4.893998 1.944642
957 48 1 20.181657 5.035065 2.022075
958 48 1 21.151657 4.892530 1.846903
959 48 1 22.121657 4.975755 1.858813
960 48 1 23.091657 5.045984 1.885778
961 49 1 -9.931915 -9.367652 5.182137
962 49 1 -8.961915 -9.411365 5.187140
963 49 1 -7.991915 -9.433428 5.230787
964 49 1 -7.021915 -9.419347 5.278027
965 49 1 -6.051915 -9.368647 5.325593
966 49 1 -5.081915 -9.249308 5.256988
967 49 1 -4.111915 -9.275121 5.298961
968 49 1 -3.141915 -9.262522 5.351064
969 49 1 -2.171915 -9.262617 5.275806
970 49 1 -1.201915 -9.427864 5.266197
971 49 1 -0.231915 -9.266748 5.250593
972 49 1 0.738085 -9.332625 5.206787
973 49 1 1.708085 -9.284287 5.195747
974 49 1 2.678085 -9.328733 5.332576
975 49 1 3.648085 -9.424568 5.204624
976 49 1 4.618085 -9.315927 5.375296
977 49 1 5.588085 -9.294631 5.370723
978 49 1 6.558085 -9.320223 5.284273
979 49 1 7.528085 -9.278949 5.267420
980 49 1 8.498085 -9.388026 5.374903
981 50 1 8.680731 -0.792083 -6.493315
982 50 1 9.650731 -0.751994 -6.532924
983 50 1 10.620731 -0.803099 -6.353797
984 50 1 11.590731 -0.883941 -6.451739
985 50 1 12.560731 -0.861462 -6.520414
986 50 1 13.530731 -0.890814 -6.461350
987 50 1 14.500731 -0.767517 -6.429193
988 50 1 15.470731 -0.812357 -6.444281
989 50 1 16.440731 -0.706101 -6.408791
990 50 1 17.410731 -0.853244 -6.405398
991 50 1 18.380731 -0.806310 -6.453437
992 50 1 19.350731 -0.891973 -6.433815
993 50 1 20.320731 -0.813748 -6.349652
994 50 1 21.290731 -0.797963 -6.398833
995 50 1 22.260731 -0.804261 -6.435573
996 50 1 23.230731 -0.850091 -6.473304
997 50 1 24.200731 -0.877155 -6.441102
998 50 1 25.170731 -0.816182 -6.341747
999 50 1 26.140731 -0.853174 -6.459099
1000 50 1 27.110731 -0.748731 -6.404285
1001 51 1 8.553757 7.850358 -9.811756
1002 51 1 9.523757 7.805731 -9.883352
1003 51 1 10.493757 7.862356 -9.866267
1004 51 1 11.463757 7.859360 -9.898451
1005 51 1 12.433757 7.786687 -9.834137
1006 51 1 13.403757 7.930803 -9.797418
1007 51 1 14.373757 7.875931 -9.767349
1008 51 1 15.343757 7.865550 -9.738143
1009 51 1 16.313757 7.887487 -9.843472
1010 51 1 17.283757 7.906781 -9.891757
1011 51 1 18.253757 7.905414 -9.803282
1012 51 1 19.223757 7.869941 -9.812020
1013 51 1 20.193757 7.896260 -9.823698
1014 51 1 21.163757 7.819199 -9.799169
1015 51 1 22.133757 7.905078 -9.743284
1016 51 1 23.103757 7.837626 -9.899128
1017 51 1 24.073757 7.864134 -9.805396
1018 51 1 25.043757 7.858313 -9.763404
1019 51 1 26.013757 7.818981 -9.907951
1020 51 1 26.983757 7.786669 -9.784970
1021 52 1 7.111845 -4.315905 0.678045
1022 52 1 8.081845 -4.295263 0.615181
1023 52 1 9.051845 -4.366477 0.559121
1024 52 1 10.021845 -4.293498 0.651534
1025 52 1 10.991845 -4.409649 0.565356
1026 52 1 11.961845 -4.274378 0.610169
1027 52 1 12.931845 -4.320361 0.577076
1028 52 1 13.901845 -4.223504 0.587506
1029 52 1 14.871845 -4.349113 0.641702
1030 52 1 15.841845 -4.308023 0.610856
1031 52 1 16.811845 -4.379846 0.597395
1032 52 1 17.781845 -4.298232 0.599283
1033 52 1 18.751845 -4.264616 0.600053
1034 52 1 19.721845 -4.284846 0.539735
1035 52 1 20.691845 -4.246390 0.554847
1036 52 1 21.661845 -4.290792 0.500786
1037 52 1 22.631845 -4.288528 0.644240
1038 52 1 23.601845 -4.212168 0.604273
1039 52 1 24.571845 -4.406578 0.617558
1040 52 1 25.541845 -4.309925 0.604097
1041 53 1 3.813031 -1.155906 -2.106468
1042 53 1 4.783031 -1.055616 -2.063267
1043 53 1 5.753031 -1.064152 -2.093694
1044 53 1 6.723031 -1.090577 -2.101964
1045 53 1 7.693031 -1.159154 -2.143047
1046 53 1 8.663031 -1.109793 -2.124307
1047 53 1 9.633031 -1.184623 -2.118764
1048 53 1 10.603031 -1.013065 -1.991880
1049 53 1 11.573031 -1.181946 -2.135349
1050 53 1 12.543031 -1.086114 -1.988394
1051 53 1 13.513031 -1.033882 -2.048799
1052 53 1 14.483031 -1.094461 -2.073736
1053 53 1 15.453031 -1.104421 -2.026737
1054 53 1 16.423031 -1.198315 -2.063199
1055 53 1 17.393031 -1.066039 -2.031378
1056 53 1 18.363031 -1.137057 -2.073448
1057 53 1 19.333031 -1.001756 -2.016967
1058 53 1 20.303031 -1.161051 -2.128382
1059 53 1 21.273031 -1.067094 -2.142408
1060 53 1 22.243031 -1.119016 -2.029956
1061 54 1 -4.801412 -6.944237 5.105809
1062 54 1 -3.831412 -6.994412 5.073601
1063 54 1 -2.861412 -7.066850 5.117913
1064 54 1 -1.891412 -7.052218 5.077422
1065 54 1 -0.921412 -6.913762 5.218735
1066 54 1 0.048588 -6.921496 5.173515
1067 54 1 1.018588 -7.010574 5.079586
1068 54 1 1.988588 -6.954686 5.077915
1069 54 1 2.958588 -7.092535 5.077072
1070 54 1 3.928588 -6.909419 5.039339
1071 54 1 4.898588 -7.054097 5.190362
1072 54 1 5.868588 -6.931582 5.203711
1073 54 1 6.838588 -7.056439 5.047780
1074 54 1 7.808588 -6.903489 5.119666
1075 54 1 8.778588 -6.956915 5.139949
1076 54 1 9.748588 -6.946803 5.047503
1077 54 1 10.718588 -7.090594 5.226957
1078 54 1 11.688588 -6.937664 5.080537
1079 54 1 12.658588 -6.989799 5.037681
1080 54 1 13.628588 -7.004649 5.034695
1081 55 1 6.558850 0.929970 0.824618
1082 55 1 7.528850 0.884165 0.701727
1083 55 1 8.498850 0.794098 0.813970
1084 55 1 9.468850 0.940924 0.707549
1085 55 1 10.438850 0.887744 0.700562
1086 55 1 11.408850 0.833833 0.673720
1087 55 1 12.378850 0.829372 0.812076
1088 55 1 13.348850 0.966521 0.672106
1089 55 1 14.318850 0.858461 0.735736
1090 55 1 15.288850 0.818835 0.841863
1091 55 1 16.258850 0.909776 0.736110
1092 55 1 17.228850 0.818041 0.722065
1093 55 1 18.198850 0.891390 0.775400
1094 55 1 19.168850 0.841106 0.730394
1095 55 1 20.138850 0.816272 0.681136
1096 55 1 21.108850 0.859062 0.704208
1097 55 1 22.078850 0.929571 0.707166
1098 55 1 23.048850 0.872724 0.761908
1099 55 1 24.018850 0.898680 0.748756
1100 55 1 24.988850 0.926667 0.836078
1101 56 1 -4.610323 8.769085 -6.977722
1102 56 1 -3.640323 8.917750 -6.990352
1103 56 1 -2.670323 8.820849 -6.945838
1104 56 1 -1.700323 8.823940 -6.999469
1105 56 1 -0.730323 8.734384 -7.114176
1106 56 1 0.239677 8.775403 -6.955201
1107 56 1 1.209677 8.811120 -7.023268
1108 56 1 2.179677 8.839416 -7.013042
1109 56 1 3.149677 8.888786 -7.004586
1110 56 1 4.119677 8.861127 -6.963055
1111 56 1 5.089677 8.904401 -6.944078
1112 56 1 6.059677 8.751601 -7.023577
1113 56 1 7.029677 8.784409 -7.116358
1114 56 1 7.999677 8.758080 -7.111887
1115 56 1 8.969677 8.866175 -7.082467
1116 56 1 9.939677 8.719881 -7.042340
1117 56 1 10.909677 8.768513 -7.006232
1118 56 1 11.879677 8.755440 -7.129188
1119 56 1 12.849677 8.855146 -7.012088
1120 56 1 13.819677 8.810909 -6.991309
1121 57 1 -9.852494 -5.945317 -6.167757
1122 57 1 -8.882494 -5.967150 -6.245531
1123 57 1 -7.912494 -5.995773 -6.148884
1124 57 1 -6.942494 -5.955692 -6.294193
1125 57 1 -5.972494 -6.110771 -6.231296
1126 57 1 -5.002494 -6.124612 -6.206492
1127 57 1 -4.032494 -6.036605 -6.180528
1128 57 1 -3.062494 -5.943499 -6.337044
1129 57 1 -2.092494 -6.078895 -6.200705
1130 57 1 -1.122494 -6.018070 -6.147514
1131 57 1 -0.152494 -6.127240 -6.340504
1132 57 1 0.817506 -6.036303 -6.234148
1133 57 1 1.787506 -6.003660 -6.169537
1134 57 1 2.757506 -6.001883 -6.178133
1135 57 1 3.727506 -6.086794 -6.261402
1136 57 1 4.697506 -5.941440 -6.213099
1137 57 1 5.667506 -5.945125 -6.152643
1138 57 1 6.637506 -6.012150 -6.191081
1139 57 1 7.607506 -6.113616 -6.236087
1140 57 1 8.577506 -6.110376 -6.146417
1141 58 1 -0.513406 7.801865 -7.312356
1142 58 1 0.456594 7.753362 -7.323143
1143 58 1 1.426594 7.709468 -7.237549
1144 58 1 2.396594 7.682923 -7.255094
1145 58 1 3.366594 7.699498 -7.334142
1146 58 1 4.336594 7.833380 -7.405182
1147 58 1 5.306594 7.837384 -7.305617
1148 58 1 6.276594 7.737897 -7.342724
1149 58 1 7.246594 7.784171 -7.304317
1150 58 1 8.216594 7.815260 -7.363967
1151 58 1 9.186594 7.726089 -7.295068
1152 58 1 10.156594 7.717974 -7.354343
1153 58 1 11.126594 7.686105 -7.216865
1154 58 1 12.096594 7.835967 -7.218501
1155 58 1 13.066594 7.755850 -7.375274
1156 58 1 14.036594 7.858721 -7.378899
1157 58 1 15.006594 7.741061 -7.321766
1158 58 1 15.976594 7.794681 -7.298528
1159 58 1 16.946594 7.765883 -7.321361
1160 58 1 17.916594 7.766672 -7.373755
1161 59 1 3.374120 -1.928356 -0.836823
1162 59 1 4.344120 -1.745759 -0.711406
1163 59 1 5.314120 -1.820698 -0.827315
1164 59 1 6.284120 -1.873670 -0.703721
1165 59 1 7.254120 -1.863194 -0.818377
1166 59 1 8.224120 -1.868244 -0.789745
1167 59 1 9.194120 -1.876758 -0.690046
1168 59 1 10.164120 -1.838071 -0.787614
1169 59 1 11.134120 -1.858954 -0.740110
1170 59 1 12.104120 -1.924682 -0.770003
1171 59 1 13.074120 -1.834821 -0.834386
1172 59 1 14.044120 -1.865629 -0.741453
1173 59 1 15.014120 -1.790238 -0.852211
1174 59 1 15.984120 -1.864003 -0.705274
1175 59 1 16.954120 -1.891759 -0.833667
1176 59 1 17.924120 -1.892814 -0.716484
1177 59 1 18.894120 -1.835896 -0.734585
1178 59 1 19.864120 -1.820445 -0.673199
1179 59 1 20.834120 -1.902796 -0.720328
1180 59 1 21.804120 -1.862571 -0.727400
1181 60 1 1.409191 -6.205920 9.610994
1182 60 1 2.379191 -6.306383 9.557345
1183 60 1 3.349191 -6.342143 9.550479
1184 60 1 4.319191 -6.183607 9.556354
1185 60 1 5.289191 -6.202526 9.660218
1186 60 1 6.259191 -6.177845 9.574304
1187 60 1 7.229191 -6.196649 9.576112
1188 60 1 8.199191 -6.189520 9.648024
1189 60 1 9.169191 -6.307758 9.597989
1190 60 1 10.139191 -6.239483 9.486389
1191 60 1 11.109191 -6.226707 9.469353
1192 60 1 12.079191 -6.285700 9.655014
1193 60 1 13.049191 -6.163963 9.597001
1194 60 1 14.019191 -6.207685 9.622140
1195 60 1 14.989191 -6.308732 9.506863
1196 60 1 15.959191 -6.194100 9.540096
1197 60 1 16.929191 -6.243601 9.598984
1198 60 1 17.899191 -6.346952 9.602971
1199 60 1 18.869191 -6.308516 9.501277
1200 60 1 19.839191 -6.313822 9.594544
1201 61 1 -2.014729 3.732889 4.154561
1202 61 1 -1.044729 3.735591 4.191774
1203 61 1 -0.074729 3.673455 4.094279
1204 61 1 0.895271 3.828673 4.010963
1205 61 1 1.865271 3.743797 4.046814
1206 61 1 2.835271 3.651508 4.182959
1207 61 1 3.805271 3.670206 4.182359
1208 61 1 4.775271 3.685197 4.180308
1209 61 1 5.745271 3.820705 4.074909
1210 61 1 6.715271 3.803064 4.053910
1211 61 1 7.685271 3.656896 4.187404
1212 61 1 8.655271 3.784344 4.060822
1213 61 1 9.625271 3.683640 4.112291
1214 61 1 10.595271 3.702516 4.066420
1215 61 1 11.565271 3.709931 4.130717
1216 61 1 12.535271 3.807032 4.002126
1217 61 1 13.505271 3.689862 4.097483
1218 61 1 14.475271 3.755786 4.180056
1219 61 1 15.445271 3.695956 4.150450
1220 61 1 16.415271 3.710323 4.030436
1221 62 1 4.494554 -5.100774 0.131595
1222 62 1 5.464554 -5.281021 0.198442
1223 62 1 6.434554 -5.167694 0.274509
1224 62 1 7.404554 -5.213162 0.253836
1225 62 1 8.374554 -5.280767 0.244129
1226 62 1 9.344554 -5.236349 0.102705
1227 62 1 10.314554 -5.229021 0.162195
1228 62 1 11.284554 -5.175571 0.274121
1229 62 1 12.254554 -5.264606 0.175956
1230 62 1 13.224554 -5.151442 0.210234
1231 62 1 14.194554 -5.109665 0.100580
1232 62 1 15.164554 -5.252694 0.170402
1233 62 1 16.134554 -5.231626 0.237245
1234 62 1 17.104554 -5.277344 0.223418
1235 62 1 18.074554 -5.141673 0.142629
1236 62 1 19.044554 -5.150737 0.219178
1237 62 1 20.014554 -5.166806 0.135173
1238 62 1 20.984554 -5.196152 0.120633
1239 62 1 21.954554 -5.159051 0.212085
1240 62 1 22.924554 -5.095669 0.220125
1241 63 1 1.213377 -2.418187 -5.182933
1242 63 1 2.183377 -2.459320 -5.292055
1243 63 1 3.153377 -2.451632 -5.268262
1244 63 1 4.123377 -2.272753 -5.187050
1245 63 1 5.093377 -2.269216 -5.204731
1246 63 1 6.063377 -2.414585 -5.281841
1247 63 1 7.033377 -2.413679 -5.184959
1248 63 1 8.003377 -2.289189 -5.232786
1249 63 1 8.973377 -2.443949 -5.288213
1250 63 1 9.943377 -2.439609 -5.312665
1251 63 1 10.913377 -2.293184 -5.200186
1252 63 1 11.883377 -2.312354 -5.232297
1253 63 1 12.853377 -2.420456 -5.287253
1254 63 1 13.823377 -2.323844 -5.333769
1255 63 1 14.793377 -2.405824 -5.166751
1256 63 1 15.763377 -2.392551 -5.162253
1257 63 1 16.733377 -2.434890 -5.285082
1258 63 1 17.703377 -2.273769 -5.299635
1259 63 1 18.673377 -2.300763 -5.188248
1260 63 1 19.643377 -2.405658 -5.242813
1261 64 1 8.611093 -0.594071 3.703984
1262 64 1 9.581093 -0.605356 3.686816
1263 64 1 10.551093 -0.674834 3.629112
1264 64 1 11.521093 -0.566575 3.595790
1265 64 1 12.491093 -0.541518 3.718740
1266 64 1 13.461093 -0.626194 3.660059
1267 64 1 14.431093 -0.630080 3.661575
1268 64 1 15.401093 -0.691522 3.778438
1269 64 1 16.371093 -0.585041 3.749117
1270 64 1 17.341093 -0.575148 3.756823
1271 64 1 18.311093 -0.638202 3.774929
1272 64 1 19.281093 -0.619915 3.737632
1273 64 1 20.251093 -0.687174 3.760643
1274 64 1 21.221093 -0.607269 3.642388
1275 64 1 22.191093 -0.601576 3.751038
1276 64 1 23.161093 -0.554204 3.737645
1277 64 1 24.131093 -0.559097 3.748715
1278 64 1 25.101093 -0.706063 3.638459
1279 64 1 26.071093 -0.650975 3.645929
1280 64 1 27.041093 -0.529860 3.729376
1281 65 1 6.482611 5.190529 5.339908
1282 65 1 7.452611 5.312440 5.286817
1283 65 1 8.422611 5.213333 5.405356
1284 65 1 9.392611 5.289279 5.262675
1285 65 1 10.362611 5.201222 5.370604
1286 65 1 11.332611 5.288726 5.308486
1287 65 1 12.302611 5.315984 5.251439
1288 65 1 13.272611 5.360428 5.410208
1289 65 1 14.242611 5.362511 5.315309
1290 65 1 15.212611 5.217066 5.394022
1291 65 1 16.182611 5.233741 5.237705
1292 65 1 17.152611 5.379997 5.233715
1293 65 1 18.122611 5.345503 5.273144
1294 65 1 19.092611 5.231920 5.374337
1295 65 1 20.062611 5.350043 5.419377
1296 65 1 21.032611 5.262601 5.255315
1297 65 1 22.002611 5.250191 5.374052
1298 65 1 22.972611 5.223729 5.246196
1299 65 1 23.942611 5.192666 5.329838
1300 65 1 24.912611 5.219543 5.427307
1301 66 1 4.715523 6.090013 -4.778368
1302 66 1 5.685523 6.135089 -4.741532
1303 66 1 6.655523 6.127889 -4.693281
1304 66 1 7.625523 6.163856 -4.748221
1305 66 1 8.595523 6.230022 -4.844883
1306 66 1 9.565523 6.199280 -4.815332
1307 66 1 10.535523 6.130721 -4.707384
1308 66 1 11.505523 6.111405 -4.756086
1309 66 1 12.475523 6.164995 -4.754928
1310 66 1 13.445523 6.109884 -4.715745
1311 66 1 14.415523 6.157289 -4.813392
1312 66 1 15.385523 6.167493 -4.651925
1313 66 1 16.355523 6.162091 -4.788470
1314 66 1 17.325523 6.203709 -4.835095
1315 66 1 18.295523 6.191201 -4.816201
1316 66 1 19.265523 6.263371 -4.669215
1317 66 1 20.235523 6.274713 -4.744144
1318 66 1 21.205523 6.119228 -4.679043
1319 66 1 22.175523 6.166553 -4.703515
1320 66 1 23.145523 6.096528 -4.661184
1321 67 1 -1.856348 -2.903982 8.528869
1322 67 1 -0.886348 -2.798001 8.584250
1323 67 1 0.083652 -2.892585 8.652226
1324 67 1 1.053652 -2.963297 8.505158
1325 67 1 2.023652 -2.871004 8.642087
1326 67 1 2.993652 -2.853104 8.642422
1327 67 1 3.963652 -2.966298 8.681548
1328 67 1 4.933652 -2.851982 8.637102
1329 67 1 5.903652 -2.944085 8.606679
1330 67 1 6.873652 -2.801567 8.554844
1331 67 1 7.843652 -2.912714 8.518682
1332 67 1 8.813652 -2.946590 8.610929
1333 67 1 9.783652 -2.849160 8.585386
1334 67 1 10.753652 -2.954673 8.660023
1335 67 1 11.723652 -2.788154 8.511177
1336 67 1 12.693652 -2.977681 8.521315
1337 67 1 13.663652 -2.822038 8.653461
1338 67 1 14.633652 -2.817348 8.664651
1339 67 1 15.603652 -2.929076 8.535365
1340 67 1 16.573652 -2.852920 8.609949
1341 68 1 -3.112401 -9.437590 -6.640552
1342 68 1 -2.142401 -9.403463 -6.634671
1343 68 1 -1.172401 -9.423870 -6.604371
1344 68 1 -0.202401 -9.517002 -6.551565
1345 68 1 0.767599 -9.539878 -6.541788
1346 68 1 1.737599 -9.345932 -6.549052
1347 68 1 2.707599 -9.504828 -6.607593
1348 68 1 3.677599 -9.434458 -6.575707
1349 68 1 4.647599 -9.462734 -6.607866
1350 68 1 5.617599 -9.448153 -6.544180
1351 68 1 6.587599 -9.351956 -6.600155
1352 68 1 7.557599 -9.504741 -6.594139
1353 68 1 8.527599 -9.533553 -6.689545
1354 68 1 9.497599 -9.402027 -6.544442
1355 68 1 10.467599 -9.448852 -6.692282
1356 68 1 11.437599 -9.363034 -6.734490
1357 68 1 12.407599 -9.383409 -6.624714
1358 68 1 13.377599 -9.514003 -6.628312
1359 68 1 14.347599 -9.472521 -6.707267
1360 68 1 15.317599 -9.485100 -6.698788
1361 69 1 3.215501 -7.507802 2.664870
1362 69 1 4.185501 -7.587273 2.617209
1363 69 1 5.155501 -7.481814 2.763295
1364 69 1 6.125501 -7.520490 2.755983
1365 69 1 7.095501 -7.570085 2.615104
1366 69 1 8.065501 -7.488357 2.738424
1367 69 1 9.035501 -7.433275 2.681291
1368 69 1 10.005501 -7.524313 2.697179
1369 69 1 10.975501 -7.548672 2.655468
1370 69 1 11.945501 -7.623526 2.707477
1371 69 1 12.915501 -7.616044 2.583097
1372 69 1 13.885501 -7.596629 2.688177
1373 69 1 14.855501 -7.500550 2.584052
1374 69 1 15.825501 -7.622989 2.633306
1375 69 1 16.795501 -7.607796 2.678818
1376 69 1 17.765501 -7.629949 2.709193
1377 69 1 18.735501 -7.584416 2.723407
1378 69 1 19.705501 -7.448947 2.756994
1379 69 1 20.675501 -7.453174 2.587731
1380 69 1 21.645501 -7.631121 2.731775
1381 70 1 5.204905 -9.165805 -9.090518
1382 70 1 6.174905 -9.119294 -9.081681
1383 70 1 7.144905 -9.218501 -9.135919
1384 70 1 8.114905 -9.135965 -9.112670
1385 70 1 9.084905 -9.224051 -9.115853
1386 70 1 10.054905 -9.086354 -9.001473
1387 70 1 11.024905 -9.246580 -8.975157
1388 70 1 11.994905 -9.115211 -9.023832
1389 70 1 12.964905 -9.146264 -9.112963
1390 70 1 13.934905 -9.224833 -9.065854
1391 70 1 14.904905 -9.191149 -9.029689
1392 70 1 15.874905 -9.091664 -9.032034
1393 70 1 16.844905 -9.227787 -8.977137
1394 70 1 17.814905 -9.190444 -8.991948
1395 70 1 18.784905 -9.134593 -9.133873
1396 70 1 19.754905 -9.200006 -9.094323
1397 70 1 20.724905 -9.213682 -9.130005
1398 70 1 21.694905 -9.176317 -8.972553
1399 70 1 22.664905 -9.238897 -8.972287
1400 70 1 23.634905 -9.121361 -9.087078
1401 71 1 -4.422657 8.639361 0.120984
1402 71 1 -3.452657 8.576552 0.089768
1403 71 1 -2.482657 8.716768 0.233032
1404 71 1 -1.512657 8.729555 0.184475
1405 71 1 -0.542657 8.606184 0.135062
1406 71 1 0.427343 8.647521 0.187401
1407 71 1 1.397343 8.656064 0.147780
1408 71 1 2.367343 8.623559 0.259052
1409 71 1 3.337343 8.645824 0.138082
1410 71 1 4.307343 8.690401 0.158701
1411 71 1 5.277343 8.606483 0.140662
1412 71 1 6.247343 8.696623 0.062748
1413 71 1 7.217343 8.556665 0.127069
1414 71 1 8.187343 8.689839 0.246616
1415 71 1 9.157343 8.622023 0.191935
1416 71 1 10.127343 8.620236 0.193103
1417 71 1 11.097343 8.595002 0.078697
1418 71 1 12.067343 8.609429 0.102127
1419 71 1 13.037343 8.666327 0.210893
1420 71 1 14.007343 8.573648 0.147011
1421 72 1 4.752424 -4.415126 5.733408
1422 72 1 5.722424 -4.338621 5.758583
1423 72 1 6.692424 -4.293260 5.678312
1424 72 1 7.662424 -4.367249 5.797222
1425 72 1 8.632424 -4.274408 5.617492
1426 72 1 9.602424 -4.327288 5.741671
1427 72 1 10.572424 -4.288697 5.782434
1428 72 1 11.542424 -4.276461 5.794783
1429 72 1 12.512424 -4.333178 5.702411
1430 72 1 13.482424 -4.385401 5.672756
1431 72 1 14.452424 -4.412113 5.713089
1432 72 1 15.422424 -4.355699 5.810702
1433 72 1 16.392424 -4.418159 5.726050
1434 72 1 17.362424 -4.272430 5.676763
1435 72 1 18.332424 -4.243008 5.792901
1436 72 1 19.302424 -4.278843 5.630463
1437 72 1 20.272424 -4.361050 5.781972
1438 72 1 21.242424 -4.244095 5.651087
1439 72 1 22.212424 -4.317859 5.763577
1440 72 1 23.182424 -4.398522 5.727892
1441 73 1 -9.894505 -9.354943 -5.402039
1442 73 1 -8.924505 -9.263094 -5.408695
1443 73 1 -7.954505 -9.267388 -5.435403
1444 73 1 -6.984505 -9.278541 -5.546542
1445 73 1 -6.014505 -9.358738 -5.361726
1446 73 1 -5.044505 -9.321701 -5.457695
1447 73 1 -4.074505 -9.334973 -5.443538
1448 73 1 -3.104505 -9.253340 -5.421151
1449 73 1 -2.134505 -9.411637 -5.526644
1450 73 1 -1.164505 -9.351632 -5.390531
1451 73 1 -0.194505 -9.327039 -5.506059
1452 73 1 0.775495 -9.414384 -5.485178
1453 73 1 1.745495 -9.333640 -5.532160
1454 73 1 2.715495 -9.249574 -5.538265
1455 73 1 3.685495 -9.222804 -5.523183
1456 73 1 4.655495 -9.372238 -5.549838
1457 73 1 5.625495 -9.308000 -5.417211
1458 73 1 6.595495 -9.409192 -5.506164
1459 73 1 7.565495 -9.282303 -5.551413
1460 73 1 8.535495 -9.280613 -5.366816
1461 74 1 8.367843 -3.632932 -8.452445
1462 74 1 9.337843 -3.634157 -8.307204
1463 74 1 10.307843 -3.742493 -8.309144
1464 74 1 11.277843 -3.703281 -8.468857
1465 74 1 12.247843 -3.662928 -8.388019
1466 74 1 13.217843 -3.684506 -8.341832
1467 74 1 14.187843 -3.691991 -8.435002
1468 74 1 15.157843 -3.755820 -8.472778
1469 74 1 16.127843 -3.705780 -8.490972
1470 74 1 17.097843 -3.658046 -8.352327
1471 74 1 18.067843 -3.596391 -8.488223
1472 74 1 19.037843 -3.652048 -8.427503
1473 74 1 20.007843 -3.584170 -8.486261
1474 74 1 20.977843 -3.638823 -8.384825
1475 74 1 21.947843 -3.653252 -8.331285
1476 74 1 22.917843 -3.739346 -8.397146
1477 74 1 23.887843 -3.670324 -8.404761
1478 74 1 24.857843 -3.673065 -8.424794
1479 74 1 25.827843 -3.613994 -8.311265
1480 74 1 26.797843 -3.574194 -8.481064
1481 75 1 6.720426 9.682924 7.136621
1482 75 1 7.690426 9.731177 7.228899
1483 75 1 8.660426 9.621483 7.238935
1484 75 1 9.630426 9.667970 7.197604
1485 75 1 10.600426 9.598492 7.260974
1486 75 1 11.570426 9.762531 7.284020
1487 75 1 12.540426 9.733998 7.105567
1488 75 1 13.510426 9.586803 7.191153
1489 75 1 14.480426 9.716286 7.154280
1490 75 1 15.450426 9.698804 7.276660
1491 75 1 16.420426 9.645536 7.210968
1492 75 1 17.390426 9.678604 7.136707
1493 75 1 18.360426 9.664844 7.170658
1494 75 1 19.330426 9.637168 7.098042
1495 75 1 20.300426 9.772335 7.243760
1496 75 1 21.270426 9.715149 7.269142
1497 75 1 22.240426 9.694989 7.106144
1498 75 1 23.210426 9.697356 7.251565
1499 75 1 24.180426 9.692912 7.116791
1500 75 1 25.150426 9.656286 7.109264
1501 76 1 0.267302 5.753187 -8.834490
1502 76 1 1.237302 5.623915 -8.862227
1503 76 1 2.207302 5.738246 -8.813825
1504 76 1 3.177302 5.624140 -8.936379
1505 76 1 4.147302 5.677239 -8.897222
1506 76 1 5.117302 5.727211 -8.774142
1507 76 1 6.087302 5.663829 -8.807755
1508 76 1 7.057302 5.750537 -8.861261
1509 76 1 8.027302 5.792223 -8.902113
1510 76 1 8.997302 5.692260 -8.859462
1511 76 1 9.967302 5.686721 -8.831474
1512 76 1 10.937302 5.786631 -8.767752
1513 76 1 11.907302 5.791263 -8.878583
1514 76 1 12.877302 5.725146 -8.759606
1515 76 1 13.847302 5.624093 -8.844975
1516 76 1 14.817302 5.765975 -8.891870
1517 76 1 15.787302 5.743762 -8.939690
1518 76 1 16.757302 5.701328 -8.784153
1519 76 1 17.727302 5.602057 -8.900235
1520 76 1 18.697302 5.740235 -8.799666
1521 77 1 5.951284 4.180277 -3.853368
1522 77 1 6.921284 4.203238 -3.982751
1523 77 1 7.891284 4.126317 -3.887421
1524 77 1 8.861284 4.277275 -4.010197
1525 77 1 9.831284 4.273987 -3.913367
1526 77 1 10.801284 4.169008 -3.895359
1527 77 1 11.771284 4.207893 -3.926200
1528 77 1 12.741284 4.294862 -3.830863
1529 77 1 13.711284 4.167603 -3.862884
1530 77 1 14.681284 4.132632 -3.941881
1531 77 1 15.651284 4.292710 -3.955712
1532 77 1 16.621284 4.210754 -3.855328
1533 77 1 17.591284 4.136698 -3.866247
1534 77 1 18.561284 4.224884 -3.887614
1535 77 1 19.531284 4.201467 -3.931170
1536 77 1 20.501284 4.252087 -3.953584
1537 77 1 21.471284 4.105869 -3.934452
1538 77 1 22.441284 4.145618 -3.926950
1539 77 1 23.411284 4.181974 -3.970489
1540 77 1 24.381284 4.217318 -3.863002
1541 78 1 -2.350980 -5.869724 0.738159
1542 78 1 -1.380980 -5.862913 0.697447
1543 78 1 -0.410980 -5.749017 0.575134
1544 78 1 0.559020 -5.755323 0.607104
1545 78 1 1.529020 -5.924613 0.559420
1546 78 1 2.499020 -5.772890 0.682237
1547 78 1 3.469020 -5.855123 0.745671
1548 78 1 4.439020 -5.752880 0.672404
1549 78 1 5.409020 -5.776320 0.681979
1550 78 1 6.379020 -5.828408 0.568003
1551 78 1 7.349020 -5.887962 0.653568
1552 78 1 8.319020 -5.758048 0.674990
1553 78 1 9.289020 -5.739297 0.615723
1554 78 1 10.259020 -5.915596 0.562255
1555 78 1 11.229020 -5.875488 0.652874
1556 78 1 12.199020 -5.893299 0.696590
1557 78 1 13.169020 -5.890974 0.739264
1558 78 1 14.139020 -5.841269 0.636969
1559 78 1 15.109020 -5.859324 0.599342
1560 78 1 16.079020 -5.824816 0.715867
1561 79 1 -1.582563 6.559410 -4.240139
1562 79 1 -0.612563 6.658988 -4.142199
1563 79 1 0.357437 6.530462 -4.222586
1564 79 1 1.327437 6.690155 -4.076432
1565 79 1 2.297437 6.674728 -4.179795
1566 79 1 3.267437 6.614868 -4.147370
1567 79 1 4.237437 6.530387 -4.131007
1568 79 1 5.207437 6.630395 -4.264961
1569 79 1 6.177437 6.512045 -4.240532
1570 79 1 7.147437 6.642245 -4.172875
1571 79 1 8.117437 6.523416 -4.081138
1572 79 1 9.087437 6.515324 -4.173753
1573 79 1 10.057437 6.678078 -4.090331
1574 79 1 11.027437 6.526765 -4.103291
1575 79 1 11.997437 6.525068 -4.200095
1576 79 1 12.967437 6.586854 -4.199987
1577 79 1 13.937437 6.593459 -4.112098
1578 79 1 14.907437 6.543459 -4.139731
1579 79 1 15.877437 6.535904 -4.150640
1580 79 1 16.847437 6.646734 -4.076786
1581 80 1 3.274269 6.438132 -3.165493
1582 80 1 4.244269 6.436025 -3.091498
1583 80 1 5.214269 6.325469 -3.044135
1584 80 1 6.184269 6.408365 -3.064354
1585 80 1 7.154269 6.461878 -2.996881
1586 80 1 8.124269 6.477321 -3.097630
1587 80 1 9.094269 6.392721 -3.024946
1588 80 1 10.064269 6.454039 -2.977297
1589 80 1 11.034269 6.387004 -3.067152
1590 80 1 12.004269 6.452944 -2.977123
1591 80 1 12.974269 6.487529 -3.109760
1592 80 1 13.944269 6.298250 -3.030522
1593 80 1 14.914269 6.404278 -3.150407
1594 80 1 15.884269 6.491656 -3.142498
1595 80 1 16.854269 6.433893 -3.030056
1596 80 1 17.824269 6.323881 -3.036478
1597 80 1 18.794269 6.293205 -3.154373
1598 80 1 19.764269 6.469926 -3.116193
1599 80 1 20.734269 6.383283 -3.003127
1600 80 1 21.704269 6.327325 -2.981121
1601 81 1 5.633750 -2.680146 1.236844
1602 81 1 6.603750 -2.729396 1.142737
1603 81 1 7.573750 -2.633920 1.212804
1604 81 1 8.543750 -2.598914 1.260636
1605 81 1 9.513750 -2.661816 1.257196
1606 81 1 10.483750 -2.642152 1.298221
1607 81 1 11.453750 -2.608109 1.304574
1608 81 1 12.423750 -2.567910 1.288672
1609 81 1 13.393750 -2.651221 1.263330
1610 81 1 14.363750 -2.672193 1.328015
1611 81 1 15.333750 -2.723509 1.234443
1612 81 1 16.303750 -2.628063 1.179408
1613 81 1 17.273750 -2.667239 1.291102
1614 81 1 18.243750 -2.543495 1.220127
1615 81 1 19.213750 -2.727284 1.186032
1616 81 1 20.183750 -2.665475 1.264731
1617 81 1 21.153750 -2.589654 1.164907
1618 81 1 22.123750 -2.731673 1.323760
1619 81 1 23.093750 -2.610214 1.219938
1620 81 1 24.063750 -2.712611 1.175885
1621 82 1 -9.072247 -4.146411 -3.536481
1622 82 1 -8.102247 -4.150787 -3.571198
1623 82 1 -7.132247 -4.122407 -3.563325
1624 82 1 -6.162247 -4.132584 -3.466471
1625 82 1 -5.192247 -4.070139 -3.523041
1626 82 1 -4.222247 -4.215412 -3.536614
1627 82 1 -3.252247 -4.078898 -3.587433
1628 82 1 -2.282247 -4.149662 -3.524177
1629 82 1 -1.312247 -4.044632 -3.493313
1630 82 1 -0.342247 -4.059198 -3.558944
1631 82 1 0.627753 -4.077458 -3.455745
1632 82 1 1.597753 -4.165016 -3.616010
1633 82 1 2.567753 -4.175397 -3.514405
1634 82 1 3.537753 -4.205345 -3.584590
1635 82 1 4.507753 -4.211357 -3.498251
1636 82 1 5.477753 -4.130523 -3.643328
1637 82 1 6.447753 -4.050203 -3.552733
1638 82 1 7.417753 -4.133893 -3.601642
1639 82 1 8.387753 -4.064987 -3.531291
1640 82 1 9.357753 -4.129667 -3.594535
1641 83 1 1.918682 3.875419 6.571142
1642 83 1 2.888682 3.877788 6.635492
1643 83 1 3.858682 4.008528 6.578883
1644 83 1 4.828682 3.934665 6.529598
1645 83 1 5.798682 3.835889 6.612277
1646 83 1 6.768682 3.832688 6.497449
1647 83 1 7.738682 3.936249 6.616818
1648 83 1 8.708682 4.007772 6.593246
1649 83 1 9.678682 3.996225 6.526733
1650 83 1 10.648682 4.003357 6.692882
1651 83 1 11.618682 3.967018 6.646106
1652 83 1 12.588682 3.903509 6.533712
1653 83 1 13.558682 3.823573 6.493468
1654 83 1 14.528682 3.986380 6.520090
1655 83 1 15.498682 3.841682 6.525678
1656 83 1 16.468682 3.984721 6.653654
1657 83 1 17.438682 3.819985 6.626949
1658 83 1 18.408682 3.959229 6.677248
1659 83 1 19.378682 3.937500 6.617630
1660 83 1 20.348682 3.987821 6.547459
1661 84 1 4.577701 3.406762 1.507595
1662 84 1 5.547701 3.375149 1.586204
1663 84 1 6.517701 3.401698 1.554389
1664 84 1 7.487701 3.521135 1.513737
1665 84 1 8.457701 3.373077 1.564618
1666 84 1 9.427701 3.469939 1.627291
1667 84 1 10.397701 3.515201 1.656976
1668 84 1 11.367701 3.400912 1.583036
1669 84 1 12.337701 3.434778 1.482873
1670 84 1 13.307701 3.427190 1.611082
1671 84 1 14.277701 3.350324 1.526293
1672 84 1 15.247701 3.469372 1.519269
1673 84 1 16.217701 3.361140 1.640610
1674 84 1 17.187701 3.508037 1.631384
1675 84 1 18.157701 3.431820 1.477596
1676 84 1 19.127701 3.433762 1.501716
1677 84 1 20.097701 3.522374 1.558175
1678 84 1 21.067701 3.408044 1.559583
1679 84 1 22.037701 3.511696 1.554117
1680 84 1 23.007701 3.422268 1.624376
1681 85 1 -9.724308 -2.465671 -0.779507
1682 85 1 -8.754308 -2.412048 -0.839901
1683 85 1 -7.784308 -2.399602 -0.884306
1684 85 1 -6.814308 -2.424372 -0.771437
1685 85 1 -5.844308 -2.285791 -0.785204
1686 85 1 -4.874308 -2.417396 -0.884108
1687 85 1 -3.904308 -2.318656 -0.848703
1688 85 1 -2.934308 -2.433492 -0.883084
1689 85 1 -1.964308 -2.320370 -0.860029
1690 85 1 -0.994308 -2.347796 -0.786526
1691 85 1 -0.024308 -2.315489 -0.826385
1692 85 1 0.945692 -2.330274 -0.762280
1693 85 1 1.915692 -2.389873 -0.898147
1694 85 1 2.885692 -2.414946 -0.832883
1695 85 1 3.855692 -2.290525 -0.885802
1696 85 1 4.825692 -2.365383 -0.923047
1697 85 1 5.795692 -2.409218 -0.792386
1698 85 1 6.765692 -2.295059 -0.926148
1699 85 1 7.735692 -2.307465 -0.811646
1700 85 1 8.705692 -2.409627 -0.805545
1701 86 1 4.280062 7.706315 1.294227
1702 86 1 5.250062 7.790737 1.214448
1703 86 1 6.220062 7.729930 1.349104
1704 86 1 7.190062 7.813050 1.209315
1705 86 1 8.160062 7.798411 1.347699
1706 86 1 9.130062 7.723914 1.290966
1707 86 1 10.100062 7.752317 1.207436
1708 86 1 11.070062 7.793726 1.180671
1709 86 1 12.040062 7.661214 1.299301
1710 86 1 13.010062 7.756524 1.312830
1711 86 1 13.980062 7.750692 1.306264
1712 86 1 14.950062 7.785444 1.341132
1713 86 1 15.920062 7.778647 1.284462
1714 86 1 16.890062 7.666183 1.306976
1715 86 1 17.860062 7.792998 1.256007
1716 86 1 18.830062 7.701544 1.193890
1717 86 1 19.800062 7.662511 1.201098
1718 86 1 20.770062 7.749059 1.301507
1719 86 1 21.740062 7.801865 1.305546
1720 86 1 22.710062 7.786195 1.262688
1721 87 1 8.459729 5.620557 6.604349
1722 87 1 9.429729 5.439886 6.473253
1723 87 1 10.399729 5.521233 6.625328
1724 87 1 11.369729 5.565976 6.481283
1725 87 1 12.339729 5.450680 6.518380
1726 87 1 13.309729 5.432353 6.618345
1727 87 1 14.279729 5.530753 6.506441
1728 87 1 15.249729 5.431814 6.577152
1729 87 1 16.219729 5.427376 6.549271
1730 87 1 17.189729 5.507111 6.463501
1731 87 1 18.159729 5.525717 6.532866
1732 87 1 19.129729 5.530110 6.571681
1733 87 1 20.099729 5.472915 6.601703
1734 87 1 21.069729 5.588003 6.467928
1735 87 1 22.039729 5.541825 6.587235
1736 87 1 23.009729 5.564793 6.540942
1737 87 1 23.979729 5.516493 6.541771
1738 87 1 24.949729 5.501186 6.635582
1739 87 1 25.919729 5.482460 6.608352
1740 87 1 26.889729 5.553215 6.488502
1741 88 1 4.047228 5.180154 4.600741
1742 88 1 5.017228 5.288968 4.513624
1743 88 1 5.987228 5.246791 4.467376
1744 88 1 6.957228 5.175285 4.540343
1745 88 1 7.927228 5.196024 4.562664
1746 88 1 8.897228 5.163972 4.489764
1747 88 1 9.867228 5.237817 4.547383
1748 88 1 10.837228 5.330993 4.499434
1749 88 1 11.807228 5.191940 4.559641
1750 88 1 12.777228 5.238188 4.469133
1751 88 1 13.747228 5.298707 4.606358
1752 88 1 14.717228 5.170099 4.627691
1753 88 1 15.687228 5.164850 4.548809
1754 88 1 16.657228 5.221097 4.586685
1755 88 1 17.627228 5.245880 4.529744
1756 88 1 18.597228 5.300839 4.602665
1757 88 1 19.567228 5.310240 4.649451
1758 88 1 20.537228 5.271703 4.479361
1759 88 1 21.507228 5.276237 4.561091
1760 88 1 22.477228 5.281424 4.574764
1761 89 1 -4.910699 2.376186 -1.031771
1762 89 1 -3.940699 2.288206 -1.086614
1763 89 1 -2.970699 2.388582 -1.066000
1764 89 1 -2.000699 2.392063 -1.175512
1765 89 1 -1.030699 2.450525 -1.103786
1766 89 1 -0.060699 2.341251 -1.069881
1767 89 1 0.909301 2.297170 -1.194897
1768 89 1 1.879301 2.378078 -1.176618
1769 89 1 2.849301 2.307529 -1.044322
1770 89 1 3.819301 2.434037 -1.156103
1771 89 1 4.789301 2.379827 -1.190923
1772 89 1 5.759301 2.360589 -1.096562
1773 89 1 6.729301 2.272112 -1.036279
1774 89 1 7.699301 2.316637 -1.168776
1775 89 1 8.669301 2.408896 -1.018371
1776 89 1 9.639301 2.461433 -1.066278
1777 89 1 10.609301 2.405891 -1.042466
1778 89 1 11.579301 2.296272 -1.151182
1779 89 1 12.549301 2.274853 -1.042550
1780 89 1 13.519301 2.420066 -1.195987
1781 90 1 -3.298544 2.773024 -7.111448
1782 90 1 -2.328544 2.660960 -7.058671
1783 90 1 -1.358544 2.663879 -7.028211
1784 90 1 -0.388544 2.679553 -7.086583
1785 90 1 0.581456 2.679251 -7.032897
1786 90 1 1.551456 2.667760 -7.180470
1787 90 1 2.521456 2.664845 -7.185185
1788 90 1 3.491456 2.845718 -7.111487
1789 90 1 4.461456 2.785678 -7.142229
1790 90 1 5.431456 2.803729 -7.081263
1791 90 1 6.401456 2.731430 -7.151947
1792 90 1 7.371456 2.687850 -7.078149
1793 90 1 8.341456 2.678166 -7.197052
1794 90 1 9.311456 2.846495 -7.060182
1795 90 1 10.281456 2.798269 -7.024854
1796 90 1 11.251456 2.764021 -7.048188
1797 90 1 12.221456 2.805943 -7.056457
1798 90 1 13.191456 2.679863 -7.192765
1799 90 1 14.161456 2.661577 -7.173971
1800 90 1 15.131456 2.780695 -7.195241
1801 91 1 6.275215 9.886372 9.159516
1802 91 1 7.245215 9.811219 9.245735
1803 91 1 8.215215 9.971719 9.078973
1804 91 1 9.185215 9.846638 9.141765
1805 91 1 10.155215 9.873285 9.209964
1806 91 1 11.125215 9.827679 9.241853
1807 91 1 12.095215 9.984812 9.173728
1808 91 1 13.065215 9.810678 9.227105
1809 91 1 14.035215 9.838863 9.116017
1810 91 1 15.005215 9.877119 9.179458
1811 91 1 15.975215 9.823784 9.133038
1812 91 1 16.945215 9.963872 9.259286
1813 91 1 17.915215 9.971418 9.169614
1814 91 1 18.885215 9.881053 9.087905
1815 91 1 19.855215 9.894134 9.172405
1816 91 1 20.825215 9.907268 9.269204
1817 91 1 21.795215 9.835938 9.272405
1818 91 1 22.765215 9.999074 9.192427
1819 91 1 23.735215 9.972398 9.145892
1820 91 1 24.705215 9.808261 9.195994
1821 92 1 -6.229726 7.586581 -2.950120
1822 92 1 -5.259726 7.703236 -2.841155
1823 92 1 -4.289726 7.577529 -2.988413
1824 92 1 -3.319726 7.716560 -2.830033
1825 92 1 -2.349726 7.689615 -2.858628
1826 92 1 -1.379726 7.715493 -2.842182
1827 92 1 -0.409726 7.549788 -2.829356
1828 92 1 0.560274 7.546355 -2.846433
1829 92 1 1.530274 7.542124 -2.991978
1830 92 1 2.500274 7.611891 -2.886915
1831 92 1 3.470274 7.686458 -2.958801
1832 92 1 4.440274 7.529800 -2.861644
1833 92 1 5.410274 7.718577 -2.829404
1834 92 1 6.380274 7.665737 -2.916323
1835 92 1 7.350274 7.716403 -2.975273
1836 92 1 8.320274 7.614034 -3.027456
1837 92 1 9.290274 7.681802 -3.017489
1838 92 1 10.260274 7.601736 -2.991097
1839 92 1 11.230274 7.553970 -2.988296
1840 92 1 12.200274 7.582510 -2.989860
1841 93 1 -2.840421 -0.157841 -3.661865
1842 93 1 -1.870421 -0.291396 -3.695929
1843 93 1 -0.900421 -0.325642 -3.793557
1844 93 1 0.069579 -0.286252 -3.618344
1845 93 1 1.039579 -0.181657 -3.720039
1846 93 1 2.009579 -0.165193 -3.665430
1847 93 1 2.979579 -0.322705 -3.690793
1848 93 1 3.949579 -0.134998 -3.664961
1849 93 1 4.919579 -0.192156 -3.777228
1850 93 1 5.889579 -0.171171 -3.686045
1851 93 1 6.859579 -0.221784 -3.622093
1852 93 1 7.829579 -0.294257 -3.776233
1853 93 1 8.799579 -0.162692 -3.776037
1854 93 1 9.769579 -0.171844 -3.692079
1855 93 1 10.739579 -0.218554 -3.633235
1856 93 1 11.709579 -0.165864 -3.617592
1857 93 1 12.679579 -0.221154 -3.737908
1858 93 1 13.649579 -0.280242 -3.715978
1859 93 1 14.619579 -0.140204 -3.740489
1860 93 1 15.589579 -0.247180 -3.768481
1861 94 1 -9.330930 -0.371488 -8.934504
1862 94 1 -8.360930 -0.290245 -9.034641
1863 94 1 -7.390930 -0.355411 -9.046913
1864 94 1 -6.420930 -0.263907 -9.053536
1865 94 1 -5.450930 -0.400516 -9.093968
1866 94 1 -4.480930 -0.404015 -9.005479
1867 94 1 -3.510930 -0.330737 -9.083697
1868 94 1 -2.540930 -0.401752 -9.055108
1869 94 1 -1.570930 -0.282851 -9.019697
1870 94 1 -0.600930 -0.373274 -9.038395
1871 94 1 0.369070 -0.393863 -9.098299
1872 94 1 1.339070 -0.263483 -9.022903
1873 94 1 2.309070 -0.312333 -9.075854
1874 94 1 3.279070 -0.406616 -9.039081
1875 94 1 4.249070 -0.347875 -9.058652
1876 94 1 5.219070 -0.416549 -9.027746
1877 94 1 6.189070 -0.403020 -9.043098
1878 94 1 7.159070 -0.312186 -9.099750
1879 94 1 8.129070 -0.391602 -8.927786
1880 94 1 9.099070 -0.284279 -9.024218
1881 95 1 -1.370075 -5.806188 3.380147
1882 95 1 -0.400075 -5.931369 3.460918
1883 95 1 0.569925 -5.893994 3.332559
1884 95 1 1.539925 -5.949068 3.349652
1885 95 1 2.509925 -5.852896 3.435456
1886 95 1 3.479925 -5.885784 3.386808
1887 95 1 4.449925 -5.860081 3.389157
1888 95 1 5.419925 -5.889053 3.385572
1889 95 1 6.389925 -5.763357 3.371232
1890 95 1 7.359925 -5.900120 3.347554
1891 95 1 8.329925 -5.925036 3.343769
1892 95 1 9.299925 -5.765863 3.466076
1893 95 1 10.269925 -5.765040 3.500192
1894 95 1 11.239925 -5.807142 3.448676
1895 95 1 12.209925 -5.844360 3.415935
1896 95 1 13.179925 -5.783077 3.455845
1897 95 1 14.149925 -5.839998 3.389344
1898 95 1 15.119925 -5.904202 3.502899
1899 95 1 16.089925 -5.764303 3.334054
1900 95 1 17.059925 -5.912992 3.462895
1901 96 1 -5.480471 -2.572065 -3.473282
1902 96 1 -4.510471 -2.564340 -3.411051
1903 96 1 -3.540471 -2.746705 -3.536405
1904 96 1 -2.570471 -2.714679 -3.520950
1905 96 1 -1.600471 -2.561486 -3.480185
1906 96 1 -0.630471 -2.719866 -3.364435
1907 96 1 0.339529 -2.685075 -3.372704
1908 96 1 1.309529 -2.577931 -3.461558
1909 96 1 2.279529 -2.570363 -3.405821
1910 96 1 3.249529 -2.667470 -3.385309
1911 96 1 4.219529 -2.725441 -3.380626
1912 96 1 5.189529 -2.575593 -3.497139
1913 96 1 6.159529 -2.692130 -3.475051
1914 96 1 7.129529 -2.591756 -3.458221
1915 96 1 8.099529 -2.667542 -3.518991
1916 96 1 9.069529 -2.705042 -3.365206
1917 96 1 10.039529 -2.554982 -3.425429
1918 96 1 11.009529 -2.695009 -3.428260
1919 96 1 11.979529 -2.663306 -3.539544
1920 96 1 12.949529 -2.718505 -3.371964
1921 97 1 -0.533548 5.750933 6.848183
1922 97 1 0.436452 5.795766 6.829713
1923 97 1 1.406452 5.781085 6.762615
1924 97 1 2.376452 5.773868 6.827238
1925 97 1 3.346452 5.876617 6.803568
1926 97 1 4.316452 5.861262 6.774280
1927 97 1 5.286452 5.844703 6.662915
1928 97 1 6.256452 5.794156 6.712280
1929 97 1 7.226452 5.812760 6.702784
1930 97 1 8.196452 5.837805 6.755168
1931 97 1 9.166452 5.818325 6.765648
1932 97 1 10.136452 5.766846 6.743742
1933 97 1 11.106452 5.895590 6.745476
1934 97 1 12.076452 5.811555 6.805976
1935 97 1 13.046452 5.796371 6.745217
1936 97 1 14.016452 5.753044 6.662750
1937 97 1 14.986452 5.875961 6.778844
1938 97 1 15.956452 5.787632 6.694597
1939 97 1 16.926452 5.810760 6.679915
1940 97 1 17.896452 5.870083 6.662264
1941 98 1 0.810784 -1.762094 9.957818
1942 98 1 1.780784 -1.745990 9.768046
1943 98 1 2.750784 -1.817171 9.944910
1944 98 1 3.720784 -1.764171 9.950862
1945 98 1 4.690784 -1.804976 9.906470
1946 98 1 5.660784 -1.695025 9.883448
1947 98 1 6.630784 -1.742732 9.759596
1948 98 1 7.600784 -1.746263 9.829928
1949 98 1 8.570784 -1.679558 9.942330
1950 98 1 9.540784 -1.715593 9.940695
1951 98 1 10.510784 -1.717941 9.913290
1952 98 1 11.480784 -1.708494 9.874066
1953 98 1 12.450784 -1.782436 9.881205
1954 98 1 13.420784 -1.752487 9.913463
1955 98 1 14.390784 -1.770118 9.855658
1956 98 1 15.360784 -1.737907 9.849470
1957 98 1 16.330784 -1.686972 9.769562
1958 98 1 17.300784 -1.690822 9.812710
1959 98 1 18.270784 -1.734108 9.938987
1960 98 1 19.240784 -1.768744 9.759133
1961 99 1 -2.554357 3.159284 8.540258
1962 99 1 -1.584357 3.193911 8.430931
1963 99 1 -0.614357 3.222916 8.509894
1964 99 1 0.355643 3.223976 8.480965
1965 99 1 1.325643 3.068470 8.428525
1966 99 1 2.295643 3.089094 8.516349
1967 99 1 3.265643 3.111408 8.475187
1968 99 1 4.235643 3.203208 8.541582
1969 99 1 5.205643 3.052775 8.463291
1970 99 1 6.175643 3.094928 8.412422
1971 99 1 7.145643 3.060247 8.507913
1972 99 1 8.115643 3.101099 8.443348
1973 99 1 9.085643 3.148432 8.389819
1974 99 1 10.055643 3.206323 8.535618
1975 99 1 11.025643 3.227620 8.466492
1976 99 1 11.995643 3.217819 8.527827
1977 99 1 12.965643 3.193098 8.420086
1978 99 1 13.935643 3.191531 8.406277
1979 99 1 14.905643 3.199140 8.374361
1980 99 1 15.875643 3.116193 8.478017
1981 100 1 -1.825677 4.182361 -7.031912
1982 100 1 -0.855677 4.168559 -6.879326
1983 100 1 0.114323 4.097405 -7.023750
1984 100 1 1.084323 4.048422 -6.989949
1985 100 1 2.054323 4.185526 -7.012004
1986 100 1 3.024323 4.174858 -7.011627
1987 100 1 3.994323 4.017265 -6.861834
1988 100 1 4.964323 4.078768 -6.878563
1989 100 1 5.934323 4.109986 -6.942224
1990 100 1 6.904323 4.133232 -6.868601
1991 100 1 7.874323 4.009553 -7.031913
1992 100 1 8.844323 4.111538 -6.948436
1993 100 1 9.814323 4.058026 -7.000018
1994 100 1 10.784323 4.106330 -6.869398
1995 100 1 11.754323 4.028100 -6.994090
1996 100 1 12.724323 4.162019 -6.884131
1997 100 1 13.694323 4.175402 -6.873373
1998 100 1 14.664323 4.183491 -6.854746
1999 100 1 15.634323 4.021381 -6.980417
2000 100 1 16.604323 4.103688 -7.014199
2001 101 1 8.513098 9.712662 8.366255
2002 101 1 9.483098 9.696546 8.446301
2003 101 1 10.453098 9.690938 8.376111
2004 101 1 11.423098 9.661968 8.345119
2005 101 1 12.393098 9.695395 8.455449
2006 101 1 13.363098 9.591359 8.325791
2007 101 1 14.333098 9.658603 8.472884
2008 101 1 15.303098 9.778350 8.324306
2009 101 1 16.273098 9.724338 8.306970
2010 101 1 17.243098 9.755130 8.436587
2011 101 1 18.213098 9.739623 8.434689
2012 101 1 19.183098 9.785159 8.292475
2013 101 1 20.153098 9.707557 8.281626
2014 101 1 21.123098 9.706671 8.315988
2015 101 1 22.093098 9.780002 8.437195
2016 101 1 23.063098 9.627244 8.457028
2017 101 1 24.033098 9.709904 8.306923
2018 101 1 25.003098 9.693245 8.452727
2019 101 1 25.973098 9.696366 8.343574
2020 101 1 26.943098 9.779957 8.334025
2021 102 1 -2.957374 0.598571 -5.255088
2022 102 1 -1.987374 0.619414 -5.154119
2023 102 1 -1.017374 0.650976 -5.198330
2024 102 1 -0.047374 0.644316 -5.105918
2025 102 1 0.922626 0.615060 -5.247940
2026 102 1 1.892626 0.597978 -5.100036
2027 102 1 2.862626 0.593118 -5.166596
2028 102 1 3.832626 0.589499 -5.229799
2029 102 1 4.802626 0.571359 -5.223623
2030 102 1 5.772626 0.678860 -5.224675
2031 102 1 6.742626 0.532074 -5.241352
2032 102 1 7.712626 0.688355 -5.129219
2033 102 1 8.682626 0.529706 -5.247160
2034 102 1 9.652626 0.690676 -5.144629
2035 102 1 10.622626 0.600813 -5.133649
2036 102 1 11.592626 0.668587 -5.221847
2037 102 1 12.562626 0.683088 -5.119402
2038 102 1 13.532626 0.613539 -5.246117
2039 102 1 14.502626 0.563370 -5.089177
2040 102 1 15.472626 0.520852 -5.077461
2041 103 1 -9.928509 -1.380511 -8.499246
2042 103 1 -8.958509 -1.374739 -8.401825
2043 103 1 -7.988509 -1.237699 -8.438265
2044 103 1 -7.018509 -1.342487 -8.527033
2045 103 1 -6.048509 -1.199504 -8.463517
2046 103 1 -5.078509 -1.380721 -8.517320
2047 103 1 -4.108509 -1.249814 -8.533353
2048 103 1 -3.138509 -1.296223 -8.410817
2049 103 1 -2.168509 -1.355537 -8.375334
2050 103 1 -1.198509 -1.294279 -8.511842
2051 103 1 -0.228509 -1.263629 -8.395379
2052 103 1 0.741491 -1.357634 -8.462193
2053 103 1 1.711491 -1.264606 -8.496460
2054 103 1 2.681491 -1.271483 -8.511064
2055 103 1 3.651491 -1.332770 -8.546462
2056 103 1 4.621491 -1.381310 -8.547023
2057 103 1 5.591491 -1.204491 -8.473710
2058 103 1 6.561491 -1.333583 -8.537562
2059 103 1 7.531491 -1.274132 -8.367680
2060 103 1 8.501491 -1.283011 -8.509847
2061 104 1 -9.981048 -8.512917 8.301808
2062 104 1 -9.011048 -8.498666 8.373167
2063 104 1 -8.041048 -8.391595 8.487968
2064 104 1 -7.071048 -8.525027 8.441027
2065 104 1 -6.101048 -8.529970 8.478039
2066 104 1 -5.131048 -8.563262 8.393601
2067 104 1 -4.161048 -8.446036 8.416311
2068 104 1 -3.191048 -8.380084 8.367974
2069 104 1 -2.221048 -8.543444 8.445896
2070 104 1 -1.251048 -8.420149 8.296684
2071 104 1 -0.281048 -8.549802 8.422394
2072 104 1 0.688952 -8.516773 8.296478
2073 104 1 1.658952 -8.435968 8.451845
2074 104 1 2.628952 -8.436637 8.423113
2075 104 1 3.598952 -8.433799 8.374234
2076 104 1 4.568952 -8.430203 8.485237
2077 104 1 5.538952 -8.552051 8.474762
2078 104 1 6.508952 -8.439819 8.442631
2079 104 1 7.478952 -8.373933 8.467209
2080 104 1 8.448952 -8.478965 8.462964
2081 105 1 -5.814897 -3.812271 9.235262
2082 105 1 -4.844897 -3.756427 9.194949
2083 105 1 -3.874897 -3.794336 9.290473
2084 105 1 -2.904897 -3.699725 9.330590
2085 105 1 -1.934897 -3.764568 9.203208
2086 105 1 -0.964897 -3.674186 9.245490
2087 105 1 0.005103 -3.680862 9.192614
2088 105 1 0.975103 -3.678605 9.259630
2089 105 1 1.945103 -3.649414 9.237477
2090 105 1 2.915103 -3.781762 9.283199
2091 105 1 3.885103 -3.772821 9.270340
2092 105 1 4.855103 -3.805974 9.288713
2093 105 1 5.825103 -3.665249 9.274884
2094 105 1 6.795103 -3.751109 9.323359
2095 105 1 7.765103 -3.736108 9.246842
2096 105 1 8.735103 -3.750998 9.217359
2097 105 1 9.705103 -3.696503 9.321303
2098 105 1 10.675103 -3.781219 9.333212
2099 105 1 11.645103 -3.674402 9.225409
2100 105 1 12.615103 -3.667696 9.368972
2101 106 1 -3.216011 0.097016 3.859805
2102 106 1 -2.246011 -0.003992 3.879148
2103 106 1 -1.276011 0.116377 3.737722
2104 106 1 -0.306011 -0.005859 3.823771
2105 106 1 0.663989 -0.027351 3.775222
2106 106 1 1.633989 0.116134 3.738552
2107 106 1 2.603989 0.127548 3.779362
2108 106 1 3.573989 0.008344 3.801377
2109 106 1 4.543989 0.113700 3.730702
2110 106 1 5.513989 0.118767 3.778734
2111 106 1 6.483989 0.121669 3.712524
2112 106 1 7.453989 0.114629 3.790579
2113 106 1 8.423989 0.058651 3.849847
2114 106 1 9.393989 0.117790 3.869965
2115 106 1 10.363989 0.066305 3.831939
2116 106 1 11.333989 -0.004131 3.875673
2117 106 1 12.303989 0.086334 3.857237
2118 106 1 13.273989 -0.019590 3.785639
2119 106 1 14.243989 0.032050 3.714339
2120 106 1 15.213989 0.051864 3.853048
2121 107 1 -4.821792 0.329830 5.070010
2122 107 1 -3.851792 0.290081 5.187370
2123 107 1 -2.881792 0.424209 5.026211
2124 107 1 -1.911792 0.364731 5.061793
2125 107 1 -0.941792 0.462805 5.214912
2126 107 1 0.028208 0.336475 5.187170
2127 107 1 0.998208 0.294969 5.156721
2128 107 1 1.968208 0.378791 5.048675
2129 107 1 2.938208 0.468459 5.189587
2130 107 1 3.908208 0.371373 5.060233
2131 107 1 4.878208 0.283792 5.035408
2132 107 1 5.848208 0.335483 5.193353
2133 107 1 6.818208 0.470455 5.073529
2134 107 1 7.788208 0.276577 5.096600
2135 107 1 8.758208 0.441612 5.114853
2136 107 1 9.728208 0.436501 5.175071
2137 107 1 10.698208 0.360623 5.087256
2138 107 1 11.668208 0.388453 5.112214
2139 107 1 12.638208 0.297222 5.148626
2140 107 1 13.608208 0.340131 5.072680
2141 108 1 6.439960 7.561372 2.362826
2142 108 1 7.409960 7.693252 2.433935
2143 108 1 8.379960 7.564467 2.338695
2144 108 1 9.349960 7.572699 2.249486
2145 108 1 10.319960 7.661689 2.270680
2146 108 1 11.289960 7.562136 2.401676
2147 108 1 12.259960 7.597356 2.412092
2148 108 1 13.229960 7.718934 2.355268
2149 108 1 14.199960 7.578743 2.420233
2150 108 1 15.169960 7.678119 2.375250
2151 108 1 16.139960 7.631104 2.290822
2152 108 1 17.109960 7.575519 2.422187
2153 108 1 18.079960 7.728399 2.279470
2154 108 1 19.049960 7.547095 2.394744
2155 108 1 20.019960 7.657836 2.276691
2156 108 1 20.989960 7.707476 2.377117
2157 108 1 21.959960 7.706306 2.407595
2158 108 1 22.929960 7.610092 2.381991
2159 108 1 23.899960 7.627305 2.406563
2160 108 1 24.869960 7.700524 2.373767
2161 109 1 -0.571019 9.117364 8.633428
2162 109 1 0.398981 9.122011 8.620683
2163 109 1 1.368981 9.028350 8.595483
2164 109 1 2.338981 9.044271 8.555752
2165 109 1 3.308981 8.987478 8.481532
2166 109 1 4.278981 8.966842 8.613101
2167 109 1 5.248981 9.137061 8.531425
2168 109 1 6.218981 8.958155 8.603663
2169 109 1 7.188981 9.099755 8.516444
2170 109 1 8.158981 9.066775 8.473594
2171 109 1 9.128981 9.055355 8.592107
2172 109 1 10.098981 8.958696 8.631064
2173 109 1 11.068981 9.082248 8.513219
2174 109 1 12.038981 8.948341 8.506528
2175 109 1 13.008981 9.109824 8.534171
2176 109 1 13.978981 9.095462 8.507460
2177 109 1 14.948981 9.008089 8.486132
2178 109 1 15.918981 8.943692 8.536470
2179 109 1 16.888981 9.075341 8.609881
2180 109 1 17.858981 8.982092 8.653782
2181 110 1 9.869074 2.335340 9.588451
2182 110 1 10.839074 2.399612 9.778922
2183 110 1 11.809074 2.493470 9.627343
2184 110 1 12.779074 2.425912 9.784985
2185 110 1 13.749074 2.426710 9.614510
2186 110 1 14.719074 2.396827 9.664144
2187 110 1 15.689074 2.437954 9.688320
2188 110 1 16.659074 2.417583 9.601551
2189 110 1 17.629074 2.482287 9.594274
2190 110 1 18.599074 2.331830 9.765219
2191 110 1 19.569074 2.337989 9.708076
2192 110 1 20.539074 2.451881 9.731269
2193 110 1 21.509074 2.357973 9.709099
2194 110 1 22.479074 2.451659 9.657997
2195 110 1 23.449074 2.359867 9.602866
2196 110 1 24.419074 2.348768 9.717801
2197 110 1 25.389074 2.482813 9.784829
2198 110 1 26.359074 2.494053 9.700162
2199 110 1 27.329074 2.382002 9.631803
2200 110 1 28.299074 2.449975 9.723910
2201 111 1 5.731088 -1.647629 6.718294
2202 111 1 6.701088 -1.515275 6.665327
2203 111 1 7.671088 -1.565802 6.781020
2204 111 1 8.641088 -1.547538 6.731676
2205 111 1 9.611088 -1.519298 6.636652
2206 111 1 10.581088 -1.666071 6.815767
2207 111 1 11.551088 -1.525392 6.823763
2208 111 1 12.521088 -1.651018 6.727292
2209 111 1 13.491088 -1.595989 6.762685
2210 111 1 14.461088 -1.641200 6.746978
2211 111 1 15.431088 -1.672975 6.681380
2212 111 1 16.401088 -1.515015 6.738270
2213 111 1 17.371088 -1.521287 6.768219
2214 111 1 18.341088 -1.675226 6.806694
2215 111 1 19.311088 -1.687002 6.702145
2216 111 1 20.281088 -1.678260 6.774557
2217 111 1 21.251088 -1.644334 6.730161
2218 111 1 22.221088 -1.687232 6.651493
2219 111 1 23.191088 -1.508889 6.833427
2220 111 1 24.161088 -1.654641 6.794488
2221 112 1 1.998824 -0.151970 -8.887486
2222 112 1 2.968824 -0.076951 -8.985020
2223 112 1 3.938824 -0.188397 -8.859799
2224 112 1 4.908824 -0.181529 -8.894273
2225 112 1 5.878824 -0.080665 -8.949966
2226 112 1 6.848824 -0.118944 -8.888196
2227 112 1 7.818824 -0.078834 -9.037887
2228 112 1 8.788824 -0.103984 -8.986513
2229 112 1 9.758824 -0.095877 -9.023105
2230 112 1 10.728824 -0.074886 -9.027629
2231 112 1 11.698824 -0.090192 -8.899073
2232 112 1 12.668824 -0.082547 -8.942744
2233 112 1 13.638824 -0.167334 -8.903190
2234 112 1 14.608824 -0.062352 -9.019357
2235 112 1 15.578824 -0.047100 -9.041749
2236 112 1 16.548824 -0.174691 -8.979779
2237 112 1 17.518824 -0.109993 -9.033340
2238 112 1 18.488824 -0.014807 -9.034345
2239 112 1 19.458824 -0.111602 -8.928487
2240 112 1 20.428824 -0.110408 -8.873273
2241 113 1 -9.181839 4.061677 -6.732184
2242 113 1 -8.211839 3.897990 -6.780539
2243 113 1 -7.241839 3.928990 -6.850995
2244 113 1 -6.271839 3.938414 -6.882265
2245 113 1 -5.301839 4.080165 -6.694813
2246 113 1 -4.331839 4.045286 -6.839363
2247 113 1 -3.361839 3.938586 -6.858092
2248 113 1 -2.391839 3.991664 -6.739418
2249 113 1 -1.421839 3.897140 -6.727697
2250 113 1 -0.451839 3.964724 -6.825512
2251 113 1 0.518161 4.057864 -6.859745
2252 113 1 1.488161 3.965917 -6.874340
2253 113 1 2.458161 3.920738 -6.730941
2254 113 1 3.428161 4.078678 -6.888387
2255 113 1 4.398161 3.937385 -6.755668
2256 113 1 5.368161 3.992566 -6.789595
2257 113 1 6.338161 4.022655 -6.719088
2258 113 1 7.308161 3.983850 -6.874774
2259 113 1 8.278161 3.906846 -6.698263
2260 113 1 9.248161 3.946492 -6.857176
2261 114 1 0.724408 -3.656285 -7.076259
2262 114 1 1.694408 -3.632176 -6.990976
2263 114 1 2.664408 -3.754911 -7.095133
2264 114 1 3.634408 -3.595928 -7.156529
2265 114 1 4.604408 -3.690396 -7.096391
2266 114 1 5.574408 -3.594315 -7.086494
2267 114 1 6.544408 -3.597348 -7.091548
2268 114 1 7.514408 -3.653048 -7.177089
2269 114 1 8.484408 -3.687696 -7.102486
2270 114 1 9.454408 -3.691340 -6.998432
2271 114 1 10.424408 -3.677112 -7.021692
2272 114 1 11.394408 -3.690217 -7.031939
2273 114 1 12.364408 -3.762950 -7.140095
2274 114 1 13.334408 -3.681290 -7.061707
2275 114 1 14.304408 -3.768709 -6.997714
2276 114 1 15.274408 -3.598632 -7.104523
2277 114 1 16.244408 -3.624331 -7.090976
2278 114 1 17.214408 -3.577260 -7.184739
2279 114 1 18.184408 -3.639936 -6.997712
2280 114 1 19.154408 -3.755093 -7.032628
2281 115 1 -4.177796 -1.423475 -6.672526
2282 115 1 -3.207796 -1.463535 -6.611380
2283 115 1 -2.237796 -1.559943 -6.711299
2284 115 1 -1.267796 -1.507643 -6.649595
2285 115 1 -0.297796 -1.509257 -6.623802
2286 115 1 0.672204 -1.383185 -6.716129
2287 115 1 1.642204 -1.376285 -6.734811
2288 115 1 2.612204 -1.450923 -6.718457
2289 115 1 3.582204 -1.478886 -6.613089
2290 115 1 4.552204 -1.445665 -6.749561
2291 115 1 5.522204 -1.470448 -6.723371
2292 115 1 6.492204 -1.538035 -6.575286
2293 115 1 7.462204 -1.553906 -6.618650
2294 115 1 8.432204 -1.393296 -6.567634
2295 115 1 9.402204 -1.381454 -6.750949
2296 115 1 10.372204 -1.393360 -6.641463
2297 115 1 11.342204 -1.373153 -6.567777
2298 115 1 12.312204 -1.423883 -6.726935
2299 115 1 13.282204 -1.363940 -6.697226
2300 115 1 14.252204 -1.510745 -6.568540
2301 116 1 -0.386518 -6.119085 -3.133928
2302 116 1 0.583482 -6.306043 -3.166089
2303 116 1 1.553482 -6.164029 -3.121279
2304 116 1 2.523482 -6.278506 -3.094669
2305 116 1 3.493482 -6.155065 -3.143588
2306 116 1 4.463482 -6.118826 -3.029876
2307 116 1 5.433482 -6.293457 -3.112529
2308 116 1 6.403482 -6.247828 -3.069339
2309 116 1 7.373482 -6.283105 -2.988523
2310 116 1 8.343482 -6.158116 -3.166610
2311 116 1 9.313482 -6.255940 -3.021455
2312 116 1 10.283482 -6.160496 -3.021530
2313 116 1 11.253482 -6.221412 -3.065030
2314 116 1 12.223482 -6.131009 -3.078256
2315 116 1 13.193482 -6.227670 -3.147637
2316 116 1 14.163482 -6.244165 -3.039192
2317 116 1 15.133482 -6.189851 -3.119201
2318 116 1 16.103482 -6.288200 -3.044916
2319 116 1 17.073482 -6.178703 -3.038483
2320 116 1 18.043482 -6.309732 -3.165998
2321 117 1 4.780276 4.482964 2.949206
2322 117 1 5.750276 4.546741 2.799973
2323 117 1 6.720276 4.502359 2.833151
2324 117 1 7.690276 4.556943 2.969766
2325 117 1 8.660276 4.516954 2.792738
2326 117 1 9.630276 4.448720 2.962029
2327 117 1 10.600276 4.462109 2.803062
2328 117 1 11.570276 4.621066 2.852986
2329 117 1 12.540276 4.595521 2.890809
2330 117 1 13.510276 4.459359 2.934246
2331 117 1 14.480276 4.604984 2.945939
2332 117 1 15.450276 4.474777 2.971561
2333 117 1 16.420276 4.524062 2.935169
2334 117 1 17.390276 4.481781 2.868344
2335 117 1 18.360276 4.497717 2.833189
2336 117 1 19.330276 4.471908 2.865784
2337 117 1 20.300276 4.631136 2.927070
2338 117 1 21.270276 4.526167 2.859479
2339 117 1 22.240276 4.617088 2.831460
2340 117 1 23.210276 4.487200 2.936767
2341 118 1 -4.334652 8.887640 -3.434809
2342 118 1 -3.364652 8.834127 -3.532583
2343 118 1 -2.394652 8.848717 -3.417032
2344 118 1 -1.424652 8.793583 -3.433313
2345 118 1 -0.454652 8.880531 -3.453089
2346 118 1 0.515348 8.767680 -3.432689
2347 118 1 1.485348 8.820404 -3.411634
2348 118 1 2.455348 8.742527 -3.394372
2349 118 1 3.425348 8.753457 -3.371409
2350 118 1 4.395348 8.778087 -3.422448
2351 118 1 5.365348 8.729610 -3.398305
2352 118 1 6.335348 8.800983 -3.419789
2353 118 1 7.305348 8.833596 -3.429919
2354 118 1 8.275348 8.790209 -3.495229
2355 118 1 9.245348 8.767352 -3.497869
2356 118 1 10.215348 8.846090 -3.493182
2357 118 1 11.185348 8.800452 -3.373608
2358 118 1 12.155348 8.845137 -3.515459
2359 118 1 13.125348 8.755600 -3.362704
2360 118 1 14.095348 8.830652 -3.375600
2361 119 1 1.723364 -6.009552 -0.917294
2362 119 1 2.693364 -5.916619 -0.826461
2363 119 1 3.663364 -6.083955 -0.870721
2364 119 1 4.633364 -5.990015 -0.865239
2365 119 1 5.603364 -5.904998 -0.823109
2366 119 1 6.573364 -6.070158 -0.802746
2367 119 1 7.543364 -6.062136 -0.907334
2368 119 1 8.513364 -5.900916 -0.867067
2369 119 1 9.483364 -5.961849 -0.899699
2370 119 1 10.453364 -6.059496 -0.798811
2371 119 1 11.423364 -6.074600 -0.834870
2372 119 1 12.393364 -5.986324 -0.929092
2373 119 1 13.363364 -6.086314 -0.899095
2374 119 1 14.333364 -6.076262 -0.918170
2375 119 1 15.303364 -5.975424 -0.906977
2376 119 1 16.273364 -6.041454 -0.795852
2377 119 1 17.243364 -6.031851 -0.840885
2378 119 1 18.213364 -6.086174 -0.957547
2379 119 1 19.183364 -6.097344 -0.964133
2380 119 1 20.153364 -6.040333 -0.902584
2381 120 1 -8.732396 -0.631334 9.102803
2382 120 1 -7.762396 -0.761312 9.121811
2383 120 1 -6.792396 -0.657555 9.117401
2384 120 1 -5.822396 -0.610266 9.090686
2385 120 1 -4.852396 -0.752782 9.023104
2386 120 1 -3.882396 -0.614660 9.022554
2387 120 1 -2.912396 -0.631016 9.175285
2388 120 1 -1.942396 -0.738453 9.144018
2389 120 1 -0.972396 -0.742923 9.182493
2390 120 1 -0.002396 -0.655531 9.117049
2391 120 1 0.967604 -0.721681 9.210591
2392 120 1 1.937604 -0.684463 9.173228
2393 120 1 2.907604 -0.782975 9.056088
2394 120 1 3.877604 -0.599852 9.112061
2395 120 1 4.847604 -0.787580 9.201528
2396 120 1 5.817604 -0.624980 9.021611
2397 120 1 6.787604 -0.651538 9.078924
2398 120 1 7.757604 -0.623119 9.078745
2399 120 1 8.727604 -0.786145 9.101484
2400 120 1 9.697604 -0.738744 9.076585
2401 121 1 -7.989647 -0.330665 7.164384
2402 121 1 -7.019647 -0.317475 7.249846
2403 121 1 -6.049647 -0.477161 7.248178
2404 121 1 -5.079647 -0.371672 7.218999
2405 121 1 -4.109647 -0.428638 7.181303
2406 121 1 -3.139647 -0.432291 7.146238
2407 121 1 -2.169647 -0.389820 7.076490
2408 121 1 -1.199647 -0.315349 7.164766
2409 121 1 -0.229647 -0.333287 7.213869
2410 121 1 0.740353 -0.494837 7.109602
2411 121 1 1.710353 -0.370726 7.076244
2412 121 1 2.680353 -0.392769 7.154936
2413 121 1 3.650353 -0.438049 7.156935
2414 121 1 4.620353 -0.437743 7.096761
2415 121 1 5.590353 -0.445097 7.189557
2416 121 1 6.560353 -0.394094 7.224172
2417 121 1 7.530353 -0.405870 7.197490
2418 121 1 8.500353 -0.354098 7.186400
2419 121 1 9.470353 -0.409848 7.108156
2420 121 1 10.440353 -0.363386 7.177112
2421 122 1 -2.779713 6.144069 -8.195501
2422 122 1 -1.809713 6.144603 -8.219378
2423 122 1 -0.839713 6.200163 -8.167630
2424 122 1 0.130287 6.096137 -8.241261
2425 122 1 1.100287 6.188365 -8.196417
2426 122 1 2.070287 6.139168 -8.236535
2427 122 1 3.040287 6.182561 -8.175414
2428 122 1 4.010287 6.170575 -8.206851
2429 122 1 4.980287 6.224242 -8.300776
2430 122 1 5.950287 6.199999 -8.223799
2431 122 1 6.920287 6.243015 -8.291876
2432 122 1 7.890287 6.103895 -8.244893
2433 122 1 8.860287 6.223513 -8.294988
2434 122 1 9.830287 6.142818 -8.276520
2435 122 1 10.800287 6.230220 -8.302313
2436 122 1 11.770287 6.184560 -8.272756
2437 122 1 12.740287 6.221140 -8.232491
2438 122 1 13.710287 6.191694 -8.262642
2439 122 1 14.680287 6.243665 -8.204710
2440 122 1 15.650287 6.154860 -8.189396
2441 123 1 -9.271300 6.391667 -6.461715
2442 123 1 -8.301300 6.272410 -6.367046
2443 123 1 -7.331300 6.299526 -6.520145
2444 123 1 -6.361300 6.386741 -6.354422
2445 123 1 -5.391300 6.308511 -6.468298
2446 123 1 -4.421300 6.287657 -6.462803
2447 123 1 -3.451300 6.399159 -6.487556
2448 123 1 -2.481300 6.341325 -6.534681
2449 123 1 -1.511300 6.404385 -6.386429
2450 123 1 -0.541300 6.352545 -6.527470
2451 123 1 0.428700 6.308206 -6.426210
2452 123 1 1.398700 6.211729 -6.408502
2453 123 1 2.368700 6.224251 -6.415997
2454 123 1 3.338700 6.329223 -6.492894
2455 123 1 4.308700 6.397273 -6.398634
2456 123 1 5.278700 6.291997 -6.512816
2457 123 1 6.248700 6.336090 -6.525933
2458 123 1 7.218700 6.402110 -6.459079
2459 123 1 8.188700 6.315038 -6.508024
2460 123 1 9.158700 6.265267 -6.391283
2461 124 1 4.752017 6.786818 5.637502
2462 124 1 5.722017 6.780463 5.705058
2463 124 1 6.692017 6.782266 5.559035
2464 124 1 7.662017 6.701156 5.679657
2465 124 1 8.632017 6.592809 5.580713
2466 124 1 9.602017 6.763404 5.581133
2467 124 1 10.572017 6.763578 5.643561
2468 124 1 11.542017 6.633890 5.695308
2469 124 1 12.512017 6.615954 5.590923
2470 124 1 13.482017 6.711553 5.568224
2471 124 1 14.452017 6.596040 5.647739
2472 124 1 15.422017 6.749925 5.650123
2473 124 1 16.392017 6.689905 5.723233
2474 124 1 17.362017 6.773970 5.670379
2475 124 1 18.332017 6.643672 5.585749
2476 124 1 19.302017 6.647148 5.556583
2477 124 1 20.272017 6.614898 5.704318
2478 124 1 21.242017 6.688748 5.665513
2479 124 1 22.212017 6.609205 5.638441
2480 124 1 23.182017 6.670465 5.732041
2481 125 1 -3.066442 -5.405639 -4.972840
2482 125 1 -2.096442 -5.367451 -4.935663
2483 125 1 -1.126442 -5.483914 -5.039114
2484 125 1 -0.156442 -5.335007 -4.949907
2485 125 1 0.813558 -5.483322 -4.906963
2486 125 1 1.783558 -5.396549 -4.904308
2487 125 1 2.753558 -5.346832 -4.901400
2488 125 1 3.723558 -5.462261 -4.923935
2489 125 1 4.693558 -5.521686 -4.982108
2490 125 1 5.663558 -5.414939 -4.911565
2491 125 1 6.633558 -5.521222 -4.946788
2492 125 1 7.603558 -5.367998 -4.962066
2493 125 1 8.573558 -5.496629 -5.042832
2494 125 1 9.543558 -5.436729 -4.930376
2495 125 1 10.513558 -5.466156 -4.916664
2496 125 1 11.483558 -5.474439 -4.905568
2497 125 1 12.453558 -5.412631 -4.941014
2498 125 1 13.423558 -5.414269 -4.887168
2499 125 1 14.393558 -5.400936 -5.004202
2500 125 1 15.363558 -5.363783 -4.875734
2501 126 1 5.522255 6.678606 -1.335844
2502 126 1 6.492255 6.838535 -1.307788
2503 126 1 7.462255 6.800958 -1.164795
2504 126 1 8.432255 6.827785 -1.202008
2505 126 1 9.402255 6.850739 -1.256469
2506 126 1 10.372255 6.667045 -1.317244
2507 126 1 11.342255 6.728775 -1.252216
2508 126 1 12.312255 6.731372 -1.202646
2509 126 1 13.282255 6.713637 -1.261637
2510 126 1 14.252255 6.815553 -1.271266
2511 126 1 15.222255 6.802207 -1.259144
2512 126 1 16.192255 6.714661 -1.298690
2513 126 1 17.162255 6.776455 -1.310488
2514 126 1 18.132255 6.716504 -1.315019
2515 126 1 19.102255 6.821659 -1.146023
2516 126 1 20.072255 6.826750 -1.298695
2517 126 1 21.042255 6.818230 -1.306338
2518 126 1 22.012255 6.661815 -1.322917
2519 126 1 22.982255 6.713263 -1.279851
2520 126 1 23.952255 6.680440 -1.331475
2521 127 1 -7.574353 0.617968 6.795158
2522 127 1 -6.604353 0.560519 6.776797
2523 127 1 -5.634353 0.564957 6.751147
2524 127 1 -4.664353 0.503277 6.868682
2525 127 1 -3.694353 0.476437 6.835125
2526 127 1 -2.724353 0.562126 6.836502
2527 127 1 -1.754353 0.525942 6.761602
2528 127 1 -0.784353 0.484588 6.839625
2529 127 1 0.185647 0.479225 6.736218
2530 127 1 1.155647 0.464353 6.775579
2531 127 1 2.125647 0.608806 6.704760
2532 127 1 3.095647 0.546165 6.840645
2533 127 1 4.065647 0.547597 6.771038
2534 127 1 5.035647 0.478737 6.812799
2535 127 1 6.005647 0.626603 6.763542
2536 127 1 6.975647 0.622841 6.830879
2537 127 1 7.945647 0.628517 6.709686
2538 127 1 8.915647 0.572331 6.808746
2539 127 1 9.885647 0.484051 6.822781
2540 127 1 10.855647 0.577730 6.756559
2541 128 1 -7.728836 4.604845 8.838381
2542 128 1 -6.758836 4.440729 8.747110
2543 128 1 -5.788836 4.536701 8.809756
2544 128 1 -4.818836 4.589500 8.893106
2545 128 1 -3.848836 4.466656 8.755605
2546 128 1 -2.878836 4.451432 8.921684
2547 128 1 -1.908836 4.570412 8.885675
2548 128 1 -0.938836 4.494804 8.836693
2549 128 1 0.031164 4.448410 8.864421
2550 128 1 1.001164 4.618475 8.757998
2551 128 1 1.971164 4.470699 8.885415
2552 128 1 2.941164 4.548458 8.852151
2553 128 1 3.911164 4.580349 8.851859
2554 128 1 4.881164 4.527428 8.769366
2555 128 1 5.851164 4.503945 8.889597
2556 128 1 6.821164 4.441199 8.810036
2557 128 1 7.791164 4.493688 8.823113
2558 128 1 8.761164 4.514347 8.869711
2559 128 1 9.731164 4.620156 8.911903
2560 128 1 10.701164 4.430562 8.804543
2561 129 1 -3.765526 -9.378193 -9.796688
2562 129 1 -2.795526 -9.435262 -9.725808
2563 129 1 -1.825526 -9.439288 -9.849143
2564 129 1 -0.855526 -9.433031 -9.823395
2565 129 1 0.114474 -9.459572 -9.783854
2566 129 1 1.084474 -9.419486 -9.762419
2567 129 1 2.054474 -9.313079 -9.827780
2568 129 1 3.024474 -9.475213 -9.782076
2569 129 1 3.994474 -9.323248 -9.726463
2570 129 1 4.964474 -9.346305 -9.724386
2571 129 1 5.934474 -9.483002 -9.802387
2572 129 1 6.904474 -9.318313 -9.756751
2573 129 1 7.874474 -9.479990 -9.753252
2574 129 1 8.844474 -9.297444 -9.697888
2575 129 1 9.814474 -9.305524 -9.806406
2576 129 1 10.784474 -9.476180 -9.829866
2577 129 1 11.754474 -9.337957 -9.720798
2578 129 1 12.724474 -9.386987 -9.825523
2579 129 1 13.694474 -9.438726 -9.857521
2580 129 1 14.664474 -9.338328 -9.810844
2581 130 1 7.579678 -8.153159 5.502730
2582 130 1 8.549678 -8.113834 5.526943
2583 130 1 9.519678 -8.086433 5.465032
2584 130 1 10.489678 -8.106772 5.499449
2585 130 1 11.459678 -8.025935 5.565093
2586 130 1 12.429678 -8.132375 5.615643
2587 130 1 13.399678 -8.156098 5.476927
2588 130 1 14.369678 -8.074024 5.498287
2589 130 1 15.339678 -8.107783 5.573847
2590 130 1 16.309678 -8.074313 5.530229
2591 130 1 17.279678 -8.026171 5.435113
2592 130 1 18.249678 -8.162222 5.562690
2593 130 1 19.219678 -8.200325 5.482492
2594 130 1 20.189678 -8.214575 5.578293
2595 130 1 21.159678 -8.031148 5.525042
2596 130 1 22.129678 -8.061372 5.459051
2597 130 1 23.099678 -8.198214 5.550773
2598 130 1 24.069678 -8.024537 5.628553
2599 130 1 25.039678 -8.058945 5.461915
2600 130 1 26.009678 -8.090327 5.622382
2601 131 1 -5.870242 2.223512 -1.988777
2602 131 1 -4.900242 2.265042 -1.890466
2603 131 1 -3.930242 2.249650 -1.869003
2604 131 1 -2.960242 2.121600 -1.967431
2605 131 1 -1.990242 2.169606 -1.851411
2606 131 1 -1.020242 2.284682 -2.028774
2607 131 1 -0.050242 2.266334 -1.931292
2608 131 1 0.919758 2.167721 -2.043499
2609 131 1 1.889758 2.257594 -2.039119
2610 131 1 2.859758 2.220859 -1.875582
2611 131 1 3.829758 2.213552 -1.977437
2612 131 1 4.799758 2.217955 -1.925054
2613 131 1 5.769758 2.264088 -1.859165
2614 131 1 6.739758 2.136517 -1.927139
2615 131 1 7.709758 2.199594 -1.986997
2616 131 1 8.679758 2.217793 -1.871995
2617 131 1 9.649758 2.263953 -1.932011
2618 131 1 10.619758 2.291172 -1.867431
2619 131 1 11.589758 2.181221 -1.910242
2620 131 1 12.559758 2.171314 -1.979113
2621 132 1 8.430457 1.042677 -5.738735
2622 132 1 9.400457 0.973293 -5.793495
2623 132 1 10.370457 0.951934 -5.636419
2624 132 1 11.340457 1.084639 -5.747443
2625 132 1 12.310457 0.972658 -5.665663
2626 132 1 13.280457 1.060263 -5.735313
2627 132 1 14.250457 0.985323 -5.682587
2628 132 1 15.220457 0.901218 -5.745251
2629 132 1 16.190457 0.981029 -5.635092
2630 132 1 17.160457 1.012716 -5.692751
2631 132 1 18.130457 1.011592 -5.717343
2632 132 1 19.100457 1.060769 -5.622579
2633 132 1 20.070457 1.084506 -5.799700
2634 132 1 21.040457 0.943262 -5.621126
2635 132 1 22.010457 1.043286 -5.694841
2636 132 1 22.980457 0.918786 -5.721908
2637 132 1 23.950457 0.976953 -5.779607
2638 132 1 24.920457 0.894466 -5.640954
2639 132 1 25.890457 1.047183 -5.683029
2640 132 1 26.860457 1.039933 -5.682077
2641 133 1 1.218656 -6.433842 -6.473379
2642 133 1 2.188656 -6.476834 -6.546680
2643 133 1 3.158656 -6.356376 -6.528554
2644 133 1 4.128656 -6.470296 -6.422860
2645 133 1 5.098656 -6.366228 -6.402408
2646 133 1 6.068656 -6.328030 -6.377021
2647 133 1 7.038656 -6.438308 -6.475482
2648 133 1 8.008656 -6.365755 -6.364023
2649 133 1 8.978656 -6.379325 -6.511726
2650 133 1 9.948656 -6.425412 -6.430287
2651 133 1 10.918656 -6.425957 -6.527132
2652 133 1 11.888656 -6.351372 -6.368075
2653 133 1 12.858656 -6.418249 -6.542392
2654 133 1 13.828656 -6.322866 -6.389809
2655 133 1 14.798656 -6.373404 -6.546398
2656 133 1 15.768656 -6.445693 -6.519759
2657 133 1 16.738656 -6.488649 -6.411478
2658 133 1 17.708656 -6.339671 -6.538169
2659 133 1 18.678656 -6.391382 -6.437520
2660 133 1 19.648656 -6.380931 -6.408937
2661 134 1 1.979629 -0.980040 5.251897
2662 134 1 2.949629 -1.003887 5.208364
2663 134 1 3.919629 -1.063951 5.275103
2664 134 1 4.889629 -1.022282 5.130688
2665 134 1 5.859629 -0.947943 5.201777
2666 134 1 6.829629 -1.046599 5.293936
2667 134 1 7.799629 -0.964911 5.152444
2668 134 1 8.769629 -0.990684 5.152207
2669 134 1 9.739629 -1.101028 5.303995
2670 134 1 10.709629 -0.945645 5.266324
2671 134 1 11.679629 -1.043347 5.187609
2672 134 1 12.649629 -1.138034 5.268364
2673 134 1 13.619629 -1.040821 5.229105
2674 134 1 14.589629 -1.032678 5.291979
2675 134 1 15.559629 -1.102715 5.227445
2676 134 1 16.529629 -1.127732 5.249981
2677 134 1 17.499629 -1.113813 5.142490
2678 134 1 18.469629 -1.052814 5.205664
2679 134 1 19.439629 -0.959219 5.184795
2680 134 1 20.409629 -1.084695 5.246193
2681 135 1 -5.221765 -8.839609 7.368390
2682 135 1 -4.251765 -8.870925 7.368288
2683 135 1 -3.281765 -8.881995 7.529292
2684 135 1 -2.311765 -8.876547 7.470519
2685 135 1 -1.341765 -8.785676 7.393649
2686 135 1 -0.371765 -8.784336 7.473890
2687 135 1 0.598235 -8.750994 7.533721
2688 135 1 1.568235 -8.874467 7.402981
2689 135 1 2.538235 -8.846839 7.370942
2690 135 1 3.508235 -8.745802 7.381155
2691 135 1 4.478235 -8.784182 7.335530
2692 135 1 5.448235 -8.898872 7.506058
2693 135 1 6.418235 -8.852924 7.483231
2694 135 1 7.388235 -8.889638 7.431535
2695 135 1 8.358235 -8.759042 7.515030
2696 135 1 9.328235 -8.824256 7.499204
2697 135 1 10.298235 -8.880866 7.444266
2698 135 1 11.268235 -8.740343 7.472371
2699 135 1 12.238235 -8.763060 7.344888
2700 135 1 13.208235 -8.796173 7.344214
2701 136 1 5.204691 -5.743481 -1.245226
2702 136 1 6.174691 -5.720930 -1.415215
2703 136 1 7.144691 -5.656325 -1.360451
2704 136 1 8.114691 -5.782101 -1.369905
2705 136 1 9.084691 -5.667665 -1.254498
2706 136 1 10.054691 -5.645522 -1.287663
2707 136 1 11.024691 -5.696251 -1.370507
2708 136 1 11.994691 -5.803879 -1.342507
2709 136 1 12.964691 -5.736845 -1.422181
2710 136 1 13.934691 -5.772646 -1.243568
2711 136 1 14.904691 -5.682055 -1.342060
2712 136 1 15.874691 -5.800026 -1.366484
2713 136 1 16.844691 -5.653342 -1.302223
2714 136 1 17.814691 -5.794149 -1.326429
2715 136 1 18.784691 -5.839258 -1.268418
2716 136 1 19.754691 -5.799476 -1.394339
2717 136 1 20.724691 -5.830778 -1.394926
2718 136 1 21.694691 -5.720564 -1.431548
2719 136 1 22.664691 -5.691602 -1.411002
2720 136 1 23.634691 -5.727359 -1.358594
2721 137 1 -8.931819 3.889675 2.701036
2722 137 1 -7.961819 3.862428 2.603809
2723 137 1 -6.991819 3.830217 2.573358
2724 137 1 -6.021819 3.866965 2.704719
2725 137 1 -5.051819 3.899813 2.647585
2726 137 1 -4.081819 3.915038 2.661917
2727 137 1 -3.111819 3.814637 2.730551
2728 137 1 -2.141819 3.796301 2.686779
2729 137 1 -1.171819 3.732591 2.550255
2730 137 1 -0.201819 3.839861 2.706524
2731 137 1 0.768181 3.831247 2.597022
2732 137 1 1.738181 3.823880 2.652769
2733 137 1 2.708181 3.893376 2.607457
2734 137 1 3.678181 3.824546 2.652014
2735 137 1 4.648181 3.735705 2.738953
2736 137 1 5.618181 3.834253 2.726225
2737 137 1 6.588181 3.794356 2.642494
2738 137 1 7.558181 3.887542 2.563992
2739 137 1 8.528181 3.876998 2.741980
2740 137 1 9.498181 3.760717 2.652625
2741 138 1 1.774736 -2.012599 -6.478890
2742 138 1 2.744736 -2.023518 -6.381410
2743 138 1 3.714736 -1.948269 -6.345842
2744 138 1 4.684736 -1.955287 -6.390680
2745 138 1 5.654736 -2.022275 -6.487094
2746 138 1 6.624736 -2.062773 -6.385096
2747 138 1 7.594736 -2.036458 -6.447108
2748 138 1 8.564736 -2.058800 -6.367411
2749 138 1 9.534736 -1.925661 -6.445031
2750 138 1 10.504736 -1.999727 -6.502714
2751 138 1 11.474736 -1.993171 -6.442438
2752 138 1 12.444736 -1.974242 -6.317338
2753 138 1 13.414736 -1.977380 -6.362930
2754 138 1 14.384736 -2.032754 -6.384038
2755 138 1 15.354736 -1.988031 -6.505323
2756 138 1 16.324736 -1.983922 -6.310435
2757 138 1 17.294736 -1.989196 -6.332683
2758 138 1 18.264736 -2.045754 -6.307885
2759 138 1 19.234736 -2.031582 -6.491077
2760 138 1 20.204736 -1.958779 -6.350334
2761 139 1 -1.770618 -2.014519 8.563147
2762 139 1 -0.800618 -2.043797 8.663618
2763 139 1 0.169382 -1.922457 8.649297
2764 139 1 1.139382 -2.045330 8.706448
2765 139 1 2.109382 -1.979807 8.573688
2766 139 1 3.079382 -2.052185 8.731971
2767 139 1 4.049382 -1.954430 8.559095
2768 139 1 5.019382 -2.030042 8.623799
2769 139 1 5.989382 -1.957436 8.623785
2770 139 1 6.959382 -1.947374 8.719707
2771 139 1 7.929382 -2.087469 8.731237
2772 139 1 8.899382 -1.959853 8.554387
2773 139 1 9.869382 -1.933168 8.737410
2774 139 1 10.839382 -2.106630 8.730937
2775 139 1 11.809382 -2.040297 8.682578
2776 139 1 12.779382 -2.080571 8.739120
2777 139 1 13.749382 -1.978559 8.699744
2778 139 1 14.719382 -2.077188 8.730571
2779 139 1 15.689382 -2.047806 8.679299
2780 139 1 16.659382 -1.990870 8.651321
2781 140 1 -2.455085 -3.764219 -0.817767
2782 140 1 -1.485085 -3.658922 -0.784541
2783 140 1 -0.515085 -3.609486 -0.760923
2784 140 1 0.454915 -3.760947 -0.788762
2785 140 1 1.424915 -3.768045 -0.791242
2786 140 1 2.394915 -3.777740 -0.666080
2787 140 1 3.364915 -3.676807 -0.672767
2788 140 1 4.334915 -3.616475 -0.701617
2789 140 1 5.304915 -3.620610 -0.720771
2790 140 1 6.274915 -3.717063 -0.724651
2791 140 1 7.244915 -3.672670 -0.784145
2792 140 1 8.214915 -3.665688 -0.822488
2793 140 1 9.184915 -3.690248 -0.704989
2794 140 1 10.154915 -3.607134 -0.720550
2795 140 1 11.124915 -3.590904 -0.815442
2796 140 1 12.094915 -3.684060 -0.673126
2797 140 1 13.064915 -3.747553 -0.641061
2798 140 1 14.034915 -3.633362 -0.760470
2799 140 1 15.004915 -3.640958 -0.795353
2800 140 1 15.974915 -3.703013 -0.739543
2801 141 1 -9.895090 8.108433 -8.543386
2802 141 1 -8.925090 8.012974 -8.501611
2803 141 1 -7.955090 8.027443 -8.454215
2804 141 1 -6.985090 8.111813 -8.541739
2805 141 1 -6.015090 8.093010 -8.442713
2806 141 1 -5.045090 8.024798 -8.518152
2807 141 1 -4.075090 7.966423 -8.517602
2808 141 1 -3.105090 8.008724 -8.556123
2809 141 1 -2.135090 8.111258 -8.450914
2810 141 1 -1.165090 7.978547 -8.489117
2811 141 1 -0.195090 8.040310 -8.444137
2812 141 1 0.774910 7.941992 -8.509934
2813 141 1 1.744910 8.086303 -8.401345
2814 141 1 2.714910 7.961333 -8.380968
2815 141 1 3.684910 8.059604 -8.426785
2816 141 1 4.654910 8.107271 -8.521244
2817 141 1 5.624910 7.992605 -8.393088
2818 141 1 6.594910 8.075156 -8.508929
2819 141 1 7.564910 8.006477 -8.512651
2820 141 1 8.534910 7.990615 -8.474651
2821 142 1 -2.187752 -0.787034 -0.918969
2822 142 1 -1.217752 -0.714715 -0.926043
2823 142 1 -0.247752 -0.851834 -0.953078
2824 142 1 0.722248 -0.729330 -0.872009
2825 142 1 1.692248 -0.874179 -0.851805
2826 142 1 2.662248 -0.878981 -0.943238
2827 142 1 3.632248 -0.866445 -0.913242
2828 142 1 4.602248 -0.865054 -0.921926
2829 142 1 5.572248 -0.765415 -0.947533
2830 142 1 6.542248 -0.863328 -0.820915
2831 142 1 7.512248 -0.787595 -0.975245
2832 142 1 8.482248 -0.833722 -0.833487
2833 142 1 9.452248 -0.833529 -0.981085
2834 142 1 10.422248 -0.804473 -0.813409
2835 142 1 11.392248 -0.708290 -0.933720
2836 142 1 12.362248 -0.781396 -0.919536
2837 142 1 13.332248 -0.745186 -0.945511
2838 142 1 14.302248 -0.729971 -0.900075
2839 142 1 15.272248 -0.847376 -0.823667
2840 142 1 16.242248 -0.837012 -0.862828
2841 143 1 3.313211 6.563274 -3.090509
2842 143 1 4.283211 6.484704 -3.049635
2843 143 1 5.253211 6.456498 -3.029506
2844 143 1 6.223211 6.574323 -3.148703
2845 143 1 7.193211 6.547353 -3.153440
2846 143 1 8.163211 6.544376 -3.043666
2847 143 1 9.133211 6.494628 -3.128212
2848 143 1 10.103211 6.526201 -3.012488
2849 143 1 11.073211 6.428469 -2.980103
2850 143 1 12.043211 6.546714 -3.079579
2851 143 1 13.013211 6.413931 -3.158401
2852 143 1 13.983211 6.553497 -3.105415
2853 143 1 14.953211 6.495514 -3.031478
2854 143 1 15.923211 6.470449 -3.149384
2855 143 1 16.893211 6.570590 -3.070307
2856 143 1 17.863211 6.552659 -2.991926
2857 143 1 18.833211 6.544591 -3.145717
2858 143 1 19.803211 6.404295 -3.068296
2859 143 1 20.773211 6.519030 -3.086923
2860 143 1 21.743211 6.464821 -3.130710
2861 144 1 -1.683421 -4.144628 2.692147
2862 144 1 -0.713421 -4.090013 2.628796
2863 144 1 0.256579 -4.048536 2.531423
2864 144 1 1.226579 -3.991457 2.671233
2865 144 1 2.196579 -4.039780 2.536029
2866 144 1 3.166579 -4.136993 2.684228
2867 144 1 4.136579 -4.063127 2.519142
2868 144 1 5.106579 -3.999019 2.671467
2869 144 1 6.076579 -4.000579 2.639452
2870 144 1 7.046579 -4.177550 2.536176
2871 144 1 8.016579 -4.004090 2.546274
2872 144 1 8.986579 -4.034429 2.615706
2873 144 1 9.956579 -4.104587 2.659692
2874 144 1 10.926579 -4.043588 2.693048
2875 144 1 11.896579 -4.096709 2.518685
2876 144 1 12.866579 -4.114810 2.593794
2877 144 1 13.836579 -4.145695 2.589620
2878 144 1 14.806579 -4.123755 2.517641
2879 144 1 15.776579 -4.117857 2.663077
2880 144 1 16.746579 -4.001638 2.532453
2881 145 1 -2.680416 1.127982 -8.667420
2882 145 1 -1.710416 1.184794 -8.660989
2883 145 1 -0.740416 1.260555 -8.610989
2884 145 1 0.229584 1.127039 -8.675243
2885 145 1 1.199584 1.178502 -8.654603
2886 145 1 2.169584 1.265368 -8.689378
2887 145 1 3.139584 1.129297 -8.715672
2888 145 1 4.109584 1.149970 -8.766173
2889 145 1 5.079584 1.118527 -8.682349
2890 145 1 6.049584 1.198027 -8.693204
2891 145 1 7.019584 1.245046 -8.709904
2892 145 1 7.989584 1.230829 -8.643187
2893 145 1 8.959584 1.117970 -8.649183
2894 145 1 9.929584 1.272723 -8.649087
2895 145 1 10.899584 1.118555 -8.779761
2896 145 1 11.869584 1.176933 -8.620086
2897 145 1 12.839584 1.262426 -8.687984
2898 145 1 13.809584 1.193079 -8.590321
2899 145 1 14.779584 1.151775 -8.744828
2900 145 1 15.749584 1.123693 -8.779702
2901 146 1 6.022339 7.204853 2.499960
2902 146 1 6.992339 7.129197 2.350259
2903 146 1 7.962339 7.227473 2.485703
2904 146 1 8.932339 7.156885 2.454412
2905 146 1 9.902339 7.241836 2.495977
2906 146 1 10.872339 7.102775 2.447851
2907 146 1 11.842339 7.256912 2.323846
2908 146 1 12.812339 7.226200 2.327437
2909 146 1 13.782339 7.183675 2.480864
2910 146 1 14.752339 7.159877 2.343391
2911 146 1 15.722339 7.198629 2.420162
2912 146 1 16.692339 7.092103 2.456995
2913 146 1 17.662339 7.225740 2.481750
2914 146 1 18.632339 7.120208 2.321546
2915 146 1 19.602339 7.194676 2.469618
2916 146 1 20.572339 7.200168 2.414495
2917 146 1 21.542339 7.111086 2.346090
2918 146 1 22.512339 7.095411 2.345363
2919 146 1 23.482339 7.204335 2.514264
2920 146 1 24.452339 7.116797 2.487951
2921 147 1 2.363961 -8.349253 -0.104959
2922 147 1 3.333961 -8.392552 -0.004064
2923 147 1 4.303961 -8.231250 0.005518
2924 147 1 5.273961 -8.232032 -0.121093
2925 147 1 6.243961 -8.331102 -0.152411
2926 147 1 7.213961 -8.308746 -0.181896
2927 147 1 8.183961 -8.393180 -0.129426
2928 147 1 9.153961 -8.298678 -0.067206
2929 147 1 10.123961 -8.370689 -0.127646
2930 147 1 11.093961 -8.208583 -0.117743
2931 147 1 12.063961 -8.343214 -0.152961
2932 147 1 13.033961 -8.203573 -0.149854
2933 147 1 14.003961 -8.357690 -0.047232
2934 147 1 14.973961 -8.259238 -0.145080
2935 147 1 15.943961 -8.392744 -0.091281
2936 147 1 16.913961 -8.234026 0.007705
2937 147 1 17.883961 -8.220582 -0.053671
2938 147 1 18.853961 -8.349744 -0.041271
2939 147 1 19.823961 -8.271443 -0.068269
2940 147 1 20.793961 -8.356580 -0.037177
2941 148 1 2.294662 -7.891366 -2.716609
2942 148 1 3.264662 -7.925981 -2.683057
2943 148 1 4.234662 -7.939746 -2.698681
2944 148 1 5.204662 -7.958727 -2.729742
2945 148 1 6.174662 -7.827478 -2.811738
2946 148 1 7.144662 -7.868587 -2.707892
2947 148 1 8.114662 -7.853454 -2.784202
2948 148 1 9.084662 -7.943849 -2.695977
2949 148 1 10.054662 -7.783003 -2.816435
2950 148 1 11.024662 -7.916851 -2.862582
2951 148 1 11.994662 -7.874659 -2.867666
2952 148 1 12.964662 -7.838282 -2.801280
2953 148 1 13.934662 -7.852845 -2.871251
2954 148 1 14.904662 -7.931454 -2.723209
2955 148 1 15.874662 -7.834505 -2.741694
2956 148 1 16.844662 -7.924154 -2.786754
2957 148 1 17.814662 -7.795692 -2.811838
2958 148 1 18.784662 -7.885699 -2.826756
2959 148 1 19.754662 -7.906534 -2.720893
2960 148 1 20.724662 -7.873193 -2.719598
2961 149 1 5.246098 7.401354 -4.771762
2962 149 1 6.216098 7.436817 -4.723873
2963 149 1 7.186098 7.307598 -4.839494
2964 149 1 8.156098 7.328425 -4.912554
2965 149 1 9.126098 7.279537 -4.904770
2966 149 1 10.096098 7.416387 -4.850944
2967 149 1 11.066098 7.456448 -4.894255
2968 149 1 12.036098 7.401239 -4.777454
2969 149 1 13.006098 7.427500 -4.850345
2970 149 1 13.976098 7.378858 -4.846870
2971 149 1 14.946098 7.317884 -4.740321
2972 149 1 15.916098 7.390379 -4.786939
2973 149 1 16.886098 7.437695 -4.869883
2974 149 1 17.856098 7.310440 -4.790461
2975 149 1 18.826098 7.281195 -4.778691
2976 149 1 19.796098 7.329125 -4.883071
2977 149 1 20.766098 7.292002 -4.912286
2978 149 1 21.736098 7.420166 -4.768692
2979 149 1 22.706098 7.391696 -4.862254
2980 149 1 23.676098 7.344149 -4.878845
2981 150 1 -4.547389 -2.558923 -2.212676
2982 150 1 -3.577389 -2.415459 -2.152116
2983 150 1 -2.607389 -2.554752 -2.149272
2984 150 1 -1.637389 -2.566200 -2.220659
2985 150 1 -0.667389 -2.530819 -2.108264
2986 150 1 0.302611 -2.486966 -2.138534
2987 150 1 1.272611 -2.443927 -2.180798
2988 150 1 2.242611 -2.385539 -2.225074
2989 150 1 3.212611 -2.375342 -2.239922
2990 150 1 4.182611 -2.542366 -2.271504
2991 150 1 5.152611 -2.539919 -2.137857
2992 150 1 6.122611 -2.430492 -2.116531
2993 150 1 7.092611 -2.427383 -2.202427
2994 150 1 8.062611 -2.527295 -2.289013
2995 150 1 9.032611 -2.565397 -2.207025
2996 150 1 10.002611 -2.482008 -2.245565
2997 150 1 10.972611 -2.481850 -2.101623
2998 150 1 11.942611 -2.507608 -2.169625
2999 150 1 12.912611 -2.469357 -2.149427
3000 150 1 13.882611 -2.427158 -2.185465
3001 151 1 -0.035191 -6.988364 -7.377559
3002 151 1 0.934809 -6.894407 -7.443356
3003 151 1 1.904809 -7.027738 -7.401324
3004 151 1 2.874809 -7.005290 -7.381657
3005 151 1 3.844809 -6.994206 -7.420916
3006 151 1 4.814809 -6.969568 -7.314528
3007 151 1 5.784809 -7.042763 -7.470952
3008 151 1 6.754809 -6.989228 -7.475636
3009 151 1 7.724809 -6.904664 -7.425247
3010 151 1 8.694809 -6.901884 -7.497445
3011 151 1 9.664809 -6.900801 -7.485910
3012 151 1 10.634809 -6.985092 -7.424277
3013 151 1 11.604809 -6.849800 -7.324516
3014 151 1 12.574809 -7.036205 -7.425910
3015 151 1 13.544809 -6.905663 -7.479720
3016 151 1 14.514809 -6.969494 -7.331394
3017 151 1 15.484809 -6.907461 -7.378147
3018 151 1 16.454809 -6.903893 -7.445487
3019 151 1 17.424809 -6.974501 -7.494361
3020 151 1 18.394809 -6.937779 -7.386477
3021 152 1 -6.566410 -2.804401 8.116697
3022 152 1 -5.596410 -2.857977 8.165890
3023 152 1 -4.626410 -2.836346 8.113319
3024 152 1 -3.656410 -2.867074 8.078744
3025 152 1 -2.686410 -2.848279 8.002151
3026 152 1 -1.716410 -2.765965 8.183784
3027 152 1 -0.746410 -2.768560 8.128106
3028 152 1 0.223590 -2.931234 7.998788
3029 152 1 1.193590 -2.890442 7.994676
3030 152 1 2.163590 -2.781059 8.085505
3031 152 1 3.133590 -2.834770 8.185561
3032 152 1 4.103590 -2.804605 8.069488
3033 152 1 5.073590 -2.930752 8.157622
3034 152 1 6.043590 -2.871294 8.075636
3035 152 1 7.013590 -2.849061 8.022484
3036 152 1 7.983590 -2.864275 8.111633
3037 152 1 8.953590 -2.787338 8.184553
3038 152 1 9.923590 -2.760815 8.022375
3039 152 1 10.893590 -2.811361 8.102301
3040 152 1 11.863590 -2.824695 8.077059
3041 153 1 -6.090052 -1.866993 7.267639
3042 153 1 -5.120052 -1.774146 7.419574
3043 153 1 -4.150052 -1.806259 7.357048
3044 153 1 -3.180052 -1.819195 7.327265
3045 153 1 -2.210052 -1.785812 7.253461
3046 153 1 -1.240052 -1.930129 7.336862
3047 153 1 -0.270052 -1.772168 7.283357
3048 153 1 0.699948 -1.926451 7.356651
3049 153 1 1.669948 -1.833737 7.368973
3050 153 1 2.639948 -1.850467 7.421956
3051 153 1 3.609948 -1.935379 7.433411
3052 153 1 4.579948 -1.768422 7.310520
3053 153 1 5.549948 -1.803594 7.432297
3054 153 1 6.519948 -1.875130 7.270564
3055 153 1 7.489948 -1.792109 7.407328
3056 153 1 8.459948 -1.884693 7.249169
3057 153 1 9.429948 -1.869559 7.243526
3058 153 1 10.399948 -1.864771 7.395824
3059 153 1 11.369948 -1.865103 7.369506
3060 153 1 12.339948 -1.889694 7.355197
3061 154 1 -2.601919 3.810050 -6.524990
3062 154 1 -1.631919 3.690967 -6.565932
3063 154 1 -0.661919 3.701827 -6.597954
3064 154 1 0.308081 3.699155 -6.682636
3065 154 1 1.278081 3.847270 -6.681274
3066 154 1 2.248081 3.751586 -6.612571
3067 154 1 3.218081 3.735205 -6.682687
3068 154 1 4.188081 3.698035 -6.645608
3069 154 1 5.158081 3.831004 -6.589720
3070 154 1 6.128081 3.677088 -6.537066
3071 154 1 7.098081 3.762632 -6.558653
3072 154 1 8.068081 3.795102 -6.620189
3073 154 1 9.038081 3.854389 -6.580609
3074 154 1 10.008081 3.723308 -6.670824
3075 154 1 10.978081 3.714553 -6.532638
3076 154 1 11.948081 3.805905 -6.542486
3077 154 1 12.918081 3.849125 -6.554738
3078 154 1 13.888081 3.815560 -6.606368
3079 154 1 14.858081 3.777556 -6.635317
3080 154 1 15.828081 3.757998 -6.626352
3081 155 1 -7.321593 0.848885 7.568914
3082 155 1 -6.351593 0.749574 7.498085
3083 155 1 -5.381593 0.746544 7.554654
3084 155 1 -4.411593 0.735863 7.529756
3085 155 1 -3.441593 0.820255 7.642053
3086 155 1 -2.471593 0.790179 7.467255
3087 155 1 -1.501593 0.857759 7.646430
3088 155 1 -0.531593 0.793921 7.503890
3089 155 1 0.438407 0.728865 7.583290
3090 155 1 1.408407 0.823054 7.600653
3091 155 1 2.378407 0.804680 7.580705
3092 155 1 3.348407 0.853334 7.650924
3093 155 1 4.318407 0.748646 7.658003
3094 155 1 5.288407 0.756101 7.477520
3095 155 1 6.258407 0.694275 7.467167
3096 155 1 7.228407 0.683639 7.583216
3097 155 1 8.198407 0.747048 7.551276
3098 155 1 9.168407 0.703470 7.604427
3099 155 1 10.138407 0.768015 7.613372
3100 155 1 11.108407 0.768506 7.484293
3101 156 1 -0.726236 7.430678 -0.051419
3102 156 1 0.243764 7.408094 0.043135
3103 156 1 1.213764 7.438939 0.042917
3104 156 1 2.183764 7.441786 0.055929
3105 156 1 3.153764 7.455932 -0.016183
3106 156 1 4.123764 7.388185 -0.063225
3107 156 1 5.093764 7.395380 0.076760
3108 156 1 6.063764 7.346342 -0.064025
3109 156 1 7.033764 7.469193 0.017457
3110 156 1 8.003764 7.344842 0.041576
3111 156 1 8.973764 7.394272 -0.079457
3112 156 1 9.943764 7.398907 0.029547
3113 156 1 10.913764 7.358860 0.074996
3114 156 1 11.883764 7.505760 0.000781
3115 156 1 12.853764 7.459996 -0.013732
3116 156 1 13.823764 7.385388 -0.071163
3117 156 1 14.793764 7.348021 -0.092057
3118 156 1 15.763764 7.504995 -0.009573
3119 156 1 16.733764 7.408447 0.023311
3120 156 1 17.703764 7.316954 -0.103577
3121 157 1 -5.563502 2.320085 5.587805
3122 157 1 -4.593502 2.363496 5.607736
3123 157 1 -3.623502 2.264960 5.574063
3124 157 1 -2.653502 2.404307 5.686952
3125 157 1 -1.683502 2.376522 5.640723
3126 157 1 -0.713502 2.393667 5.589349
3127 157 1 0.256498 2.405951 5.513068
3128 157 1 1.226498 2.336196 5.531175
3129 157 1 2.196498 2.286509 5.517805
3130 157 1 3.166498 2.282410 5.584207
3131 157 1 4.136498 2.358964 5.694780
3132 157 1 5.106498 2.265372 5.672628
3133 157 1 6.076498 2.400755 5.573717
3134 157 1 7.046498 2.265267 5.673950
3135 157 1 8.016498 2.327028 5.531705
3136 157 1 8.986498 2.249804 5.644535
3137 157 1 9.956498 2.272728 5.646402
3138 157 1 10.926498 2.281410 5.514714
3139 157 1 11.896498 2.337273 5.537943
3140 157 1 12.866498 2.289929 5.582849
3141 158 1 2.070247 9.199769 9.274929
3142 158 1 3.040247 9.107934 9.366409
3143 158 1 4.010247 9.286284 9.362023
3144 158 1 4.980247 9.283956 9.329224
3145 158 1 5.950247 9.250020 9.337617
3146 158 1 6.920247 9.160520 9.334125
3147 158 1 7.890247 9.198720 9.198859
3148 158 1 8.860247 9.178694 9.205683
3149 158 1 9.830247 9.120961 9.200216
3150 158 1 10.800247 9.123634 9.360459
3151 158 1 11.770247 9.282405 9.346270
3152 158 1 12.740247 9.151242 9.270189
3153 158 1 13.710247 9.133959 9.355818
3154 158 1 14.680247 9.283211 9.265655
3155 158 1 15.650247 9.216197 9.209423
3156 158 1 16.620247 9.205177 9.296398
3157 158 1 17.590247 9.190196 9.238083
3158 158 1 18.560247 9.190551 9.309596
3159 158 1 19.530247 9.255484 9.282846
3160 158 1 20.500247 9.274160 9.331227
3161 159 1 -2.009672 -2.444090 7.646187
3162 159 1 -1.039672 -2.488219 7.690558
3163 159 1 -0.069672 -2.474293 7.598119
3164 159 1 0.900328 -2.483992 7.629579
3165 159 1 1.870328 -2.413816 7.693291
3166 159 1 2.840328 -2.367440 7.610560
3167 159 1 3.810328 -2.302598 7.775536
3168 159 1 4.780328 -2.352201 7.662279
3169 159 1 5.750328 -2.343851 7.735119
3170 159 1 6.720328 -2.459058 7.783197
3171 159 1 7.690328 -2.325335 7.701651
3172 159 1 8.660328 -2.323292 7.706987
3173 159 1 9.630328 -2.339598 7.647232
3174 159 1 10.600328 -2.386036 7.737063
3175 159 1 11.570328 -2.318153 7.637784
3176 159 1 12.540328 -2.319197 7.587164
3177 159 1 13.510328 -2.316986 7.780310
3178 159 1 14.480328 -2.432527 7.601498
3179 159 1 15.450328 -2.415637 7.666315
3180 159 1 16.420328 -2.467495 7.622622
3181 160 1 5.310929 4.708657 -8.576323
3182 160 1 6.280929 4.760517 -8.430851
3183 160 1 7.250929 4.711046 -8.527005
3184 160 1 8.220929 4.877725 -8.571705
3185 160 1 9.190929 4.889460 -8.613551
3186 160 1 10.160929 4.803170 -8.539888
3187 160 1 11.130929 4.720592 -8.547271
3188 160 1 12.100929 4.738036 -8.534531
3189 160 1 13.070929 4.721379 -8.449614
3190 160 1 14.040929 4.793290 -8.542002
3191 160 1 15.010929 4.751084 -8.524255
3192 160 1 15.980929 4.882257 -8.457142
3193 160 1 16.950929 4.793465 -8.442964
3194 160 1 17.920929 4.729022 -8.626681
3195 160 1 18.890929 4.810937 -8.460723
3196 160 1 19.860929 4.714533 -8.601927
3197 160 1 20.830929 4.830292 -8.532446
3198 160 1 21.800929 4.880717 -8.574859
3199 160 1 22.770929 4.854664 -8.495442
3200 160 1 23.740929 4.715143 -8.431580
3201 161 1 4.558471 3.490166 5.459957
3202 161 1 5.528471 3.553076 5.468755
3203 161 1 6.498471 3.474719 5.428291
3204 161 1 7.468471 3.542807 5.479099
3205 161 1 8.438471 3.540798 5.464256
3206 161 1 9.408471 3.615116 5.385170
3207 161 1 10.378471 3.478426 5.486247
3208 161 1 11.348471 3.564137 5.480177
3209 161 1 12.318471 3.472642 5.515677
3210 161 1 13.288471 3.567349 5.526067
3211 161 1 14.258471 3.507051 5.479010
3212 161 1 15.228471 3.555762 5.360969
3213 161 1 16.198471 3.449385 5.354839
3214 161 1 17.168471 3.489923 5.379460
3215 161 1 18.138471 3.465649 5.386322
3216 161 1 19.108471 3.506108 5.534222
3217 161 1 20.078471 3.534775 5.370324
3218 161 1 21.048471 3.561867 5.363493
3219 161 1 22.018471 3.476081 5.426825
3220 161 1 22.988471 3.563828 5.508232
3221 162 1 1.796810 6.237833 -8.783730
3222 162 1 2.766810 6.075666 -8.834708
3223 162 1 3.736810 6.214079 -8.687822
3224 162 1 4.706810 6.098016 -8.740941
3225 162 1 5.676810 6.157324 -8.746063
3226 162 1 6.646810 6.212937 -8.701881
3227 162 1 7.616810 6.172644 -8.750413
3228 162 1 8.586810 6.055828 -8.687667
3229 162 1 9.556810 6.090610 -8.690889
3230 162 1 10.526810 6.174990 -8.737422
3231 162 1 11.496810 6.167599 -8.769257
3232 162 1 12.466810 6.061526 -8.704700
3233 162 1 13.436810 6.056442 -8.781584
3234 162 1 14.406810 6.127749 -8.793985
3235 162 1 15.376810 6.171013 -8.678304
3236 162 1 16.346810 6.147992 -8.816634
3237 162 1 17.316810 6.194042 -8.675564
3238 162 1 18.286810 6.176278 -8.736709
3239 162 1 19.256810 6.104076 -8.857916
3240 162 1 20.226810 6.146170 -8.671926
3241 163 1 6.573906 3.994191 -9.373300
3242 163 1 7.543906 4.107666 -9.402754
3243 163 1 8.513906 4.009083 -9.456953
3244 163 1 9.483906 4.130265 -9.441148
3245 163 1 10.453906 4.119599 -9.405796
3246 163 1 11.423906 4.130118 -9.380961
3247 163 1 12.393906 4.144359 -9.395102
3248 163 1 13.363906 4.056852 -9.498798
3249 163 1 14.333906 4.106365 -9.428151
3250 163 1 15.303906 4.018673 -9.408621
3251 163 1 16.273906 4.056299 -9.533689
3252 163 1 17.243906 4.021832 -9.376001
3253 163 1 18.213906 4.059055 -9.490805
3254 163 1 19.183906 4.080714 -9.361281
3255 163 1 20.153906 4.025466 -9.412359
3256 163 1 21.123906 4.014355 -9.424609
3257 163 1 22.093906 4.067733 -9.437466
3258 163 1 23.063906 4.094967 -9.418979
3259 163 1 24.033906 4.001738 -9.394726
3260 163 1 25.003906 4.012164 -9.500127
3261 164 1 -2.326494 3.046099 -4.945072
3262 164 1 -1.356494 2.906199 -4.998114
3263 164 1 -0.386494 2.919533 -4.921962
3264 164 1 0.583506 2.889660 -4.956251
3265 164 1 1.553506 3.032034 -4.951598
3266 164 1 2.523506 2.952732 -5.026639
3267 164 1 3.493506 2.852412 -5.015591
3268 164 1 4.463506 2.910473 -5.007298
3269 164 1 5.433506 2.903917 -4.949417
3270 164 1 6.403506 2.891902 -4.895382
3271 164 1 7.373506 2.963808 -4.897892
3272 164 1 8.343506 2.861693 -4.913889
3273 164 1 9.313506 2.915987 -5.053410
3274 164 1 10.283506 2.866271 -5.062864
3275 164 1 11.253506 2.979955 -5.056325
3276 164 1 12.223506 3.035411 -5.035462
3277 164 1 13.193506 3.035183 -4.892774
3278 164 1 14.163506 2.976297 -4.981252
3279 164 1 15.133506 2.897324 -5.058878
3280 164 1 16.103506 2.864941 -4.944493
3281 165 1 -8.605311 -8.817014 -4.331492
3282 165 1 -7.635311 -8.775846 -4.318493
3283 165 1 -6.665311 -8.628791 -4.287833
3284 165 1 -5.695311 -8.744361 -4.358950
3285 165 1 -4.725311 -8.757180 -4.334980
3286 165 1 -3.755311 -8.736024 -4.216447
3287 165 1 -2.785311 -8.699462 -4.384129
3288 165 1 -1.815311 -8.707335 -4.252135
3289 165 1 -0.845311 -8.801716 -4.242080
3290 165 1 0.124689 -8.760167 -4.369086
3291 165 1 1.094689 -8.646307 -4.257911
3292 165 1 2.064689 -8.694487 -4.317996
3293 165 1 3.034689 -8.711914 -4.384640
3294 165 1 4.004689 -8.686928 -4.362473
3295 165 1 4.974689 -8.666561 -4.336243
3296 165 1 5.944689 -8.817489 -4.268256
3297 165 1 6.914689 -8.681664 -4.259126
3298 165 1 7.884689 -8.727404 -4.263633
3299 165 1 8.854689 -8.660940 -4.282148
3300 165 1 9.824689 -8.779982 -4.337654
3301 166 1 4.123767 -5.786584 0.805899
3302 166 1 5.093767 -5.925824 0.860817
3303 166 1 6.063767 -5.871696 0.843524
3304 166 1 7.033767 -5.769972 0.799414
3305 166 1 8.003767 -5.910628 0.769349
3306 166 1 8.973767 -5.751067 0.917078
3307 166 1 9.943767 -5.766807 0.843078
3308 166 1 10.913767 -5.786384 0.799347
3309 166 1 11.883767 -5.871280 0.760587
3310 166 1 12.853767 -5.798832 0.841157
3311 166 1 13.823767 -5.870393 0.763105
3312 166 1 14.793767 -5.788666 0.825313
3313 166 1 15.763767 -5.870188 0.789520
3314 166 1 16.733767 -5.856969 0.865036
3315 166 1 17.703767 -5.931850 0.903108
3316 166 1 18.673767 -5.738127 0.853455
3317 166 1 19.643767 -5.740752 0.808989
3318 166 1 20.613767 -5.787634 0.865090
3319 166 1 21.583767 -5.773621 0.925747
3320 166 1 22.553767 -5.748235 0.794953
3321 167 1 6.012716 -9.420303 5.770978
3322 167 1 6.982716 -9.294612 5.789809
3323 167 1 7.952716 -9.430171 5.765439
3324 167 1 8.922716 -9.462631 5.843460
3325 167 1 9.892716 -9.300763 5.852391
3326 167 1 10.862716 -9.271556 5.697980
3327 167 1 11.832716 -9.390847 5.879617
3328 167 1 12.802716 -9.317765 5.734148
3329 167 1 13.772716 -9.405952 5.730541
3330 167 1 14.742716 -9.372263 5.766969
3331 167 1 15.712716 -9.456242 5.878632
3332 167 1 16.682716 -9.330409 5.707287
3333 167 1 17.652716 -9.384574 5.730472
3334 167 1 18.622716 -9.281993 5.791992
3335 167 1 19.592716 -9.384687 5.771844
3336 167 1 20.562716 -9.451484 5.736367
3337 167 1 21.532716 -9.333444 5.692571
3338 167 1 22.502716 -9.273527 5.702812
3339 167 1 23.472716 -9.426442 5.727960
3340 167 1 24.442716 -9.469258 5.731368
3341 168 1 -4.621834 -2.656105 2.392089
3342 168 1 -3.651834 -2.750802 2.471639
3343 168 1 -2.681834 -2.579917 2.443157
3344 168 1 -1.711834 -2.725311 2.550828
3345 168 1 -0.741834 -2.587544 2.449215
3346 168 1 0.228166 -2.615888 2.463060
3347 168 1 1.198166 -2.566077 2.483214
3348 168 1 2.168166 -2.750262 2.455831
3349 168 1 3.138166 -2.612939 2.406220
3350 168 1 4.108166 -2.716388 2.380313
3351 168 1 5.078166 -2.598353 2.542364
3352 168 1 6.048166 -2.677794 2.381078
3353 168 1 7.018166 -2.729508 2.536600
3354 168 1 7.988166 -2.699565 2.463166
3355 168 1 8.958166 -2.607983 2.485361
3356 168 1 9.928166 -2.727997 2.412273
3357 168 1 10.898166 -2.623332 2.397677
3358 168 1 11.868166 -2.639270 2.562586
3359 168 1 12.838166 -2.635349 2.480542
3360 168 1 13.808166 -2.638742 2.372648
3361 169 1 2.856717 3.038017 -6.464687
3362 169 1 3.826717 2.949681 -6.343895
3363 169 1 4.796717 2.898051 -6.414330
3364 169 1 5.766717 3.050215 -6.420642
3365 169 1 6.736717 2.910483 -6.328200
3366 169 1 7.706717 2.890824 -6.281200
3367 169 1 8.676717 2.924509 -6.453991
3368 169 1 9.646717 2.997797 -6.447210
3369 169 1 10.616717 2.916181 -6.373439
3370 169 1 11.586717 2.943859 -6.416428
3371 169 1 12.556717 2.961917 -6.288935
3372 169 1 13.526717 2.880622 -6.347570
3373 169 1 14.496717 2.897002 -6.465825
3374 169 1 15.466717 2.921681 -6.395949
3375 169 1 16.436717 2.877022 -6.283031
3376 169 1 17.406717 2.983851 -6.313993
3377 169 1 18.376717 3.042581 -6.316974
3378 169 1 19.346717 3.002518 -6.336208
3379 169 1 20.316717 2.972694 -6.393203
3380 169 1 21.286717 2.885720 -6.412007
3381 170 1 0.644636 2.952189 0.096634
3382 170 1 1.614636 2.916771 0.032689
3383 170 1 2.584636 2.899203 0.120780
3384 170 1 3.554636 3.025271 -0.056388
3385 170 1 4.524636 3.015605 -0.037312
3386 170 1 5.494636 2.984599 0.098228
3387 170 1 6.464636 3.038198 0.114748
3388 170 1 7.434636 3.007509 -0.042814
3389 170 1 8.404636 3.038390 0.097027
3390 170 1 9.374636 2.975760 0.069967
3391 170 1 10.344636 2.855945 0.064721
3392 170 1 11.314636 2.952891 0.032466
3393 170 1 12.284636 2.864237 0.076198
3394 170 1 13.254636 2.921672 -0.001141
3395 170 1 14.224636 2.866536 0.008210
3396 170 1 15.194636 2.950975 -0.018588
3397 170 1 16.164636 2.856071 0.076676
3398 170 1 17.134636 3.006903 -0.025883
3399 170 1 18.104636 2.887956 0.024922
3400 170 1 19.074636 3.003239 0.030926
3401 171 1 4.284540 7.052973 -8.338029
3402 171 1 5.254540 6.947741 -8.333417
3403 171 1 6.224540 6.938115 -8.397839
3404 171 1 7.194540 7.051662 -8.245269
3405 171 1 8.164540 7.013526 -8.379522
3406 171 1 9.134540 7.056847 -8.274273
3407 171 1 10.104540 6.976377 -8.344100
3408 171 1 11.074540 7.076746 -8.312617
3409 171 1 12.044540 7.051812 -8.214980
3410 171 1 13.014540 6.962666 -8.322004
3411 171 1 13.984540 6.907331 -8.247935
3412 171 1 14.954540 6.948529 -8.360031
3413 171 1 15.924540 6.917426 -8.268997
3414 171 1 16.894540 6.902715 -8.337490
3415 171 1 17.864540 6.962428 -8.251099
3416 171 1 18.834540 7.001043 -8.327581
3417 171 1 19.804540 6.903145 -8.302391
3418 171 1 20.774540 6.989438 -8.377694
3419 171 1 21.744540 6.945950 -8.336265
3420 171 1 22.714540 7.059721 -8.316940
3421 172 1 6.728888 -6.366812 7.206764
3422 172 1 7.698888 -6.385985 7.181974
3423 172 1 8.668888 -6.376679 7.120103
3424 172 1 9.638888 -6.439228 7.082681
3425 172 1 10.608888 -6.432890 7.093961
3426 172 1 11.578888 -6.462195 7.239922
3427 172 1 12.548888 -6.410259 7.109020
3428 172 1 13.518888 -6.434562 7.253579
3429 172 1 14.488888 -6.401085 7.198779
3430 172 1 15.458888 -6.324523 7.206498
3431 172 1 16.428888 -6.378248 7.142364
3432 172 1 17.398888 -6.431282 7.078509
3433 172 1 18.368888 -6.345056 7.168691
3434 172 1 19.338888 -6.304273 7.169968
3435 172 1 20.308888 -6.410376 7.189237
3436 172 1 21.278888 -6.449743 7.189703
3437 172 1 22.248888 -6.340337 7.162118
3438 172 1 23.218888 -6.430453 7.188813
3439 172 1 24.188888 -6.449371 7.239840
3440 172 1 25.158888 -6.380040 7.165744
3441 173 1 9.095504 8.143687 1.434978
3442 173 1 10.065504 8.015342 1.609807
3443 173 1 11.035504 8.012362 1.587242
3444 173 1 12.005504 8.108040 1.464406
3445 173 1 12.975504 8.027284 1.486019
3446 173 1 13.945504 8.152499 1.614633
3447 173 1 14.915504 8.150547 1.483274
3448 173 1 15.885504 8.135245 1.605566
3449 173 1 16.855504 8.072119 1.494857
3450 173 1 17.825504 8.097877 1.524538
3451 173 1 18.795504 8.132938 1.604466
3452 173 1 19.765504 8.025980 1.616731
3453 173 1 20.735504 8.029533 1.470449
3454 173 1 21.705504 8.146793 1.601202
3455 173 1 22.675504 8.025007 1.531468
3456 173 1 23.645504 8.186296 1.593386
3457 173 1 24.615504 8.105758 1.554528
3458 173 1 25.585504 8.046080 1.536558
3459 173 1 26.555504 8.074301 1.625779
3460 173 1 27.525504 8.097775 1.552101
3461 174 1 -7.241105 -4.617707 2.150936
3462 174 1 -6.271105 -4.638265 2.106771
3463 174 1 -5.301105 -4.621348 2.127298
3464 174 1 -4.331105 -4.769990 2.106536
3465 174 1 -3.361105 -4.696521 2.037295
3466 174 1 -2.391105 -4.656629 1.996598
3467 174 1 -1.421105 -4.780188 2.094798
3468 174 1 -0.451105 -4.706811 2.120760
3469 174 1 0.518895 -4.684863 1.995104
3470 174 1 1.488895 -4.731318 2.160821
3471 174 1 2.458895 -4.612442 2.031424
3472 174 1 3.428895 -4.742791 2.163198
3473 174 1 4.398895 -4.744204 2.041292
3474 174 1 5.368895 -4.680176 2.074264
3475 174 1 6.338895 -4.779479 2.068230
3476 174 1 7.308895 -4.635605 2.079530
3477 174 1 8.278895 -4.691117 2.050539
3478 174 1 9.248895 -4.732040 1.994118
3479 174 1 10.218895 -4.642886 2.142310
3480 174 1 11.188895 -4.691054 2.072829
3481 175 1 7.115331 1.063170 8.018815
3482 175 1 8.085331 1.124059 7.964558
3483 175 1 9.055331 1.168593 8.072719
3484 175 1 10.025331 1.160577 8.089332
3485 175 1 10.995331 1.123181 7.982933
3486 175 1 11.965331 1.242156 8.055341
3487 175 1 12.935331 1.103666 8.015224
3488 175 1 13.905331 1.207644 8.003187
3489 175 1 14.875331 1.139766 8.140690
3490 175 1 15.845331 1.207445 8.019424
3491 175 1 16.815331 1.219971 8.091549
3492 175 1 17.785331 1.220073 8.118813
3493 175 1 18.755331 1.221579 8.101324
3494 175 1 19.725331 1.257391 8.075275
3495 175 1 20.695331 1.246491 8.076171
3496 175 1 21.665331 1.083464 7.970175
3497 175 1 22.635331 1.060952 7.994587
3498 175 1 23.605331 1.069421 8.039036
3499 175 1 24.575331 1.236380 8.133452
3500 175 1 25.545331 1.143892 7.976175
3501 176 1 4.869460 5.399148 -1.385084
3502 176 1 5.839460 5.437978 -1.409231
3503 176 1 6.809460 5.462502 -1.482661
3504 176 1 7.779460 5.413564 -1.342125
3505 176 1 8.749460 5.444851 -1.348143
3506 176 1 9.719460 5.315875 -1.440615
3507 176 1 10.689460 5.372125 -1.431935
3508 176 1 11.659460 5.466874 -1.409937
3509 176 1 12.629460 5.333264 -1.498838
3510 176 1 13.599460 5.389016 -1.423781
3511 176 1 14.569460 5.377546 -1.476983
3512 176 1 15.539460 5.362108 -1.490315
3513 176 1 16.509460 5.478435 -1.483745
3514 176 1 17.479460 5.431344 -1.464669
3515 176 1 18.449460 5.305204 -1.465943
3516 176 1 19.419460 5.460999 -1.452903
3517 176 1 20.389460 5.317780 -1.385518
3518 176 1 21.359460 5.405335 -1.352553
3519 176 1 22.329460 5.475831 -1.355063
3520 176 1 23.299460 5.283279 -1.439119
3521 177 1 3.220143 0.912811 -8.196758
3522 177 1 4.190143 0.939660 -8.280664
3523 177 1 5.160143 0.958741 -8.150446
3524 177 1 6.130143 0.860580 -8.295908
3525 177 1 7.100143 0.840047 -8.232330
3526 177 1 8.070143 0.879625 -8.278298
3527 177 1 9.040143 0.884826 -8.172755
3528 177 1 10.010143 0.852111 -8.160079
3529 177 1 10.980143 0.846651 -8.171999
3530 177 1 11.950143 0.916751 -8.204077
3531 177 1 12.920143 0.991316 -8.165864
3532 177 1 13.890143 0.813615 -8.179852
3533 177 1 14.860143 0.934987 -8.146915
3534 177 1 15.830143 0.901728 -8.159948
3535 177 1 16.800143 0.861569 -8.231373
3536 177 1 17.770143 0.912706 -8.212059
3537 177 1 18.740143 0.940363 -8.173327
3538 177 1 19.710143 0.924788 -8.209724
3539 177 1 20.680143 0.996215 -8.246699
3540 177 1 21.650143 0.971825 -8.162768
3541 178 1 2.829362 -4.721475 -8.819617
3542 178 1 3.799362 -4.746129 -8.774014
3543 178 1 4.769362 -4.746609 -8.943482
3544 178 1 5.739362 -4.595009 -8.837031
3545 178 1 6.709362 -4.696629 -8.855107
3546 178 1 7.679362 -4.689503 -8.864839
3547 178 1 8.649362 -4.658393 -8.918950
3548 178 1 9.619362 -4.707793 -8.891859
3549 178 1 10.589362 -4.598137 -8.773872
3550 178 1 11.559362 -4.595881 -8.858621
3551 178 1 12.529362 -4.593831 -8.904743
3552 178 1 13.499362 -4.710062 -8.885677
3553 178 1 14.469362 -4.704608 -8.803907
3554 178 1 15.439362 -4.664927 -8.951854
3555 178 1 16.409362 -4.698871 -8.768024
3556 178 1 17.379362 -4.725326 -8.832382
3557 178 1 18.349362 -4.587784 -8.849049
3558 178 1 19.319362 -4.718803 -8.899084
3559 178 1 20.289362 -4.647995 -8.818106
3560 178 1 21.259362 -4.611071 -8.885977
3561 179 1 5.268296 -6.406630 -0.727622
3562 179 1 6.238296 -6.464673 -0.593414
3563 179 1 7.208296 -6.530256 -0.778467
3564 179 1 8.178296 -6.567084 -0.600740
3565 179 1 9.148296 -6.440501 -0.778230
3566 179 1 10.118296 -6.505341 -0.723223
3567 179 1 11.088296 -6.498588 -0.634545
3568 179 1 12.058296 -6.465099 -0.713003
3569 179 1 13.028296 -6.535840 -0.605930
3570 179 1 13.998296 -6.569840 -0.599918
3571 179 1 14.968296 -6.532358 -0.694738
3572 179 1 15.938296 -6.434804 -0.646471
3573 179 1 16.908296 -6.418606 -0.660882
3574 179 1 17.878296 -6.599521 -0.758259
3575 179 1 18.848296 -6.454116 -0.621179
3576 179 1 19.818296 -6.519067 -0.740550
3577 179 1 20.788296 -6.545998 -0.756438
3578 179 1 21.758296 -6.495060 -0.612876
3579 179 1 22.728296 -6.419809 -0.590901
3580 179 1 23.698296 -6.465302 -0.773042
3581 180 1 -5.146014 -2.119998 5.114411
3582 180 1 -4.176014 -1.978881 5.121127
3583 180 1 -3.206014 -1.945267 5.146016
3584 180 1 -2.236014 -1.948586 5.081300
3585 180 1 -1.266014 -1.964311 5.194944
3586 180 1 -0.296014 -2.125644 5.074153
3587 180 1 0.673986 -2.123879 5.025385
3588 180 1 1.643986 -2.027780 5.086611
3589 180 1 2.613986 -2.001146 5.013051
3590 180 1 3.583986 -2.082673 5.052657
3591 180 1 4.553986 -2.129424 5.164553
3592 180 1 5.523986 -2.049469 5.107638
3593 180 1 6.493986 -1.986592 5.151060
3594 180 1 7.463986 -1.937525 5.060995
3595 180 1 8.433986 -2.047860 5.185702
3596 180 1 9.403986 -2.051984 5.113421
3597 180 1 10.373986 -1.965448 5.156305
3598 180 1 11.343986 -1.962711 4.998636
3599 180 1 12.313986 -2.131198 5.193728
3600 180 1 13.283986 -2.060600 5.164530
3601 181 1 -8.839683 9.447999 6.403799
3602 181 1 -7.869683 9.546102 6.490987
3603 181 1 -6.899683 9.529081 6.351482
3604 181 1 -5.929683 9.451000 6.523397
3605 181 1 -4.959683 9.436187 6.424217
3606 181 1 -3.989683 9.569345 6.407345
3607 181 1 -3.019683 9.497727 6.456435
3608 181 1 -2.049683 9.579146 6.464282
3609 181 1 -1.079683 9.540333 6.483121
3610 181 1 -0.109683 9.584046 6.428349
3611 181 1 0.860317 9.440995 6.512806
3612 181 1 1.830317 9.527818 6.349277
3613 181 1 2.800317 9.420521 6.333501
3614 181 1 3.770317 9.530373 6.390817
3615 181 1 4.740317 9.505039 6.495351
3616 181 1 5.710317 9.534956 6.414925
3617 181 1 6.680317 9.506001 6.353571
3618 181 1 7.650317 9.457177 6.345358
3619 181 1 8.620317 9.582018 6.377219
3620 181 1 9.590317 9.541795 6.395982
3621 182 1 1.298265 -0.675509 2.121466
3622 182 1 2.268265 -0.746773 2.130066
3623 182 1 3.238265 -0.647885 2.166564
3624 182 1 4.208265 -0.611613 2.091854
3625 182 1 5.178265 -0.792106 2.155861
3626 182 1 6.148265 -0.721919 2.115790
3627 182 1 7.118265 -0.745804 2.068533
3628 182 1 8.088265 -0.621486 2.070573
3629 182 1 9.058265 -0.643846 2.094778
3630 182 1 10.028265 -0.764425 2.021117
3631 182 1 10.998265 -0.718845 2.089993
3632 182 1 11.968265 -0.697913 2.063946
3633 182 1 12.938265 -0.695865 2.105080
3634 182 1 13.908265 -0.692889 2.106911
3635 182 1 14.878265 -0.741780 2.096113
3636 182 1 15.848265 -0.723088 2.088221
3637 182 1 16.818265 -0.646143 2.025342
3638 182 1 17.788265 -0.713300 2.025844
3639 182 1 18.758265 -0.614843 1.991915
3640 182 1 19.728265 -0.760368 2.039644
3641 183 1 -7.642731 -7.553195 2.251829
3642 183 1 -6.672731 -7.476520 2.232781
3643 183 1 -5.702731 -7.510151 2.277734
3644 183 1 -4.732731 -7.533757 2.261385
3645 183 1 -3.762731 -7.601621 2.193197
3646 183 1 -2.792731 -7.477900 2.309805
3647 183 1 -1.822731 -7.617383 2.186420
3648 183 1 -0.852731 -7.519347 2.282034
3649 183 1 0.117269 -7.568345 2.254944
3650 183 1 1.087269 -7.481162 2.177227
3651 183 1 2.057269 -7.472437 2.177331
3652 183 1 3.027269 -7.433714 2.163460
3653 183 1 3.997269 -7.628362 2.151282
3654 183 1 4.967269 -7.475298 2.290437
3655 183 1 5.937269 -7.508673 2.243405
3656 183 1 6.907269 -7.577672 2.274938
3657 183 1 7.877269 -7.597249 2.180289
3658 183 1 8.847269 -7.529892 2.279019
3659 183 1 9.817269 -7.601720 2.264509
3660 183 1 10.787269 -7.500900 2.310273
3661 184 1 5.372349 3.476185 3.461597
3662 184 1 6.342349 3.455446 3.358702
3663 184 1 7.312349 3.396701 3.353853
3664 184 1 8.282349 3.466818 3.322871
3665 184 1 9.252349 3.365955 3.379192
3666 184 1 10.222349 3.392270 3.362922
3667 184 1 11.192349 3.389635 3.290890
3668 184 1 12.162349 3.466500 3.368467
3669 184 1 13.132349 3.353695 3.284772
3670 184 1 14.102349 3.416674 3.415100
3671 184 1 15.072349 3.447025 3.421223
3672 184 1 16.042349 3.507056 3.372985
3673 184 1 17.012349 3.521761 3.405582
3674 184 1 17.982349 3.369555 3.443481
3675 184 1 18.952349 3.362458 3.398755
3676 184 1 19.922349 3.352069 3.423791
3677 184 1 20.892349 3.535637 3.278713
3678 184 1 21.862349 3.544435 3.432379
3679 184 1 22.832349 3.356711 3.269016
3680 184 1 23.802349 3.452326 3.382100
3681 185 1 -7.000393 -4.608807 6.060338
3682 185 1 -6.030393 -4.682922 5.948234
3683 185 1 -5.060393 -4.559817 6.018595
3684 185 1 -4.090393 -4.651245 6.022352
3685 185 1 -3.120393 -4.633739 5.985912
3686 185 1 -2.150393 -4.633927 6.029671
3687 185 1 -1.180393 -4.680784 5.958772
3688 185 1 -0.210393 -4.542527 5.869420
3689 185 1 0.759607 -4.676160 5.998403
3690 185 1 1.729607 -4.708336 6.048240
3691 185 1 2.699607 -4.564271 5.879899
3692 185 1 3.669607 -4.641618 5.975540
3693 185 1 4.639607 -4.639286 5.868030
3694 185 1 5.609607 -4.540053 5.976771
3695 185 1 6.579607 -4.589777 5.903306
3696 185 1 7.549607 -4.568984 5.953064
3697 185 1 8.519607 -4.717286 5.917075
3698 185 1 9.489607 -4.696458 6.057884
3699 185 1 10.459607 -4.593074 6.002629
3700 185 1 11.429607 -4.630222 5.918412
3701 186 1 -0.949663 1.730940 -1.986986
3702 186 1 0.020337 1.744956 -1.981545
3703 186 1 0.990337 1.783706 -1.942003
3704 186 1 1.960337 1.695024 -2.107061
3705 186 1 2.930337 1.650086 -2.058138
3706 186 1 3.900337 1.777103 -2.004774
3707 186 1 4.870337 1.748696 -1.959240
3708 186 1 5.840337 1.672975 -2.100445
3709 186 1 6.810337 1.724376 -1.979072
3710 186 1 7.780337 1.770428 -2.015116
3711 186 1 8.750337 1.717976 -2.119582
3712 186 1 9.720337 1.733141 -1.985786
3713 186 1 10.690337 1.675760 -2.068660
3714 186 1 11.660337 1.741227 -2.019380
3715 186 1 12.630337 1.701567 -2.116566
3716 186 1 13.600337 1.669274 -2.110905
3717 186 1 14.570337 1.797614 -1.961157
3718 186 1 15.540337 1.645180 -2.024748
3719 186 1 16.510337 1.754826 -2.026308
3720 186 1 17.480337 1.732036 -2.002528
3721 187 1 -1.844289 -2.563301 5.101772
3722 187 1 -0.874289 -2.422036 5.220759
3723 187 1 0.095711 -2.443284 5.098046
3724 187 1 1.065711 -2.526101 5.159995
3725 187 1 2.035711 -2.387225 5.095753
3726 187 1 3.005711 -2.515550 5.130981
3727 187 1 3.975711 -2.450804 5.137787
3728 187 1 4.945711 -2.453706 5.232276
3729 187 1 5.915711 -2.387104 5.144673
3730 187 1 6.885711 -2.526167 5.252851
3731 187 1 7.855711 -2.550691 5.191833
3732 187 1 8.825711 -2.366534 5.266386
3733 187 1 9.795711 -2.387132 5.104702
3734 187 1 10.765711 -2.443282 5.127401
3735 187 1 11.735711 -2.517855 5.285183
3736 187 1 12.705711 -2.540133 5.253387
3737 187 1 13.675711 -2.482875 5.180771
3738 187 1 14.645711 -2.488109 5.271295
3739 187 1 15.615711 -2.560665 5.210172
3740 187 1 16.585711 -2.413937 5.211090
3741 188 1 -5.435824 3.631308 6.220557
3742 188 1 -4.465824 3.552808 6.292146
3743 188 1 -3.495824 3.680974 6.256508
3744 188 1 -2.525824 3.514694 6.135005
3745 188 1 -1.555824 3.656869 6.166523
3746 188 1 -0.585824 3.585163 6.120613
3747 188 1 0.384176 3.666067 6.183390
3748 188 1 1.354176 3.562187 6.157603
3749 188 1 2.324176 3.528517 6.234661
3750 188 1 3.294176 3.638864 6.228180
3751 188 1 4.264176 3.552280 6.181520
3752 188 1 5.234176 3.592937 6.209084
3753 188 1 6.204176 3.642650 6.136320
3754 188 1 7.174176 3.600384 6.300520
3755 188 1 8.144176 3.541142 6.144714
3756 188 1 9.114176 3.520123 6.309910
3757 188 1 10.084176 3.660318 6.297922
3758 188 1 11.054176 3.527226 6.291171
3759 188 1 12.024176 3.671603 6.283430
3760 188 1 12.994176 3.673346 6.175211
3761 189 1 6.446632 7.943973 -2.155847
3762 189 1 7.416632 7.948062 -2.219126
3763 189 1 8.386632 7.984805 -2.266856
3764 189 1 9.356632 7.997994 -2.279244
3765 189 1 10.326632 7.885231 -2.228554
3766 189 1 11.296632 8.042283 -2.321055
3767 189 1 12.266632 8.025529 -2.177442
3768 189 1 13.236632 7.940544 -2.291840
3769 189 1 14.206632 7.992981 -2.211964
3770 189 1 15.176632 7.868148 -2.250899
3771 189 1 16.146632 7.934502 -2.278684
3772 189 1 17.116632 7.980457 -2.150391
3773 189 1 18.086632 7.879676 -2.309380
3774 189 1 19.056632 7.888104 -2.257927
3775 189 1 20.026632 7.875845 -2.273150
3776 189 1 20.996632 8.038615 -2.226154
3777 189 1 21.966632 7.969387 -2.174590
3778 189 1 22.936632 7.913808 -2.167895
3779 189 1 23.906632 7.873420 -2.214894
3780 189 1 24.876632 7.958740 -2.273926
3781 190 1 4.257991 0.809322 -0.740879
3782 190 1 5.227991 0.865420 -0.855477
3783 190 1 6.197991 0.767829 -0.843025
3784 190 1 7.167991 0.937407 -0.710043
3785 190 1 8.137991 0.894343 -0.718272
3786 190 1 9.107991 0.905162 -0.743831
3787 190 1 10.077991 0.812521 -0.708626
3788 190 1 11.047991 0.814286 -0.843800
3789 190 1 12.017991 0.794209 -0.815882
3790 190 1 12.987991 0.759717 -0.816153
3791 190 1 13.957991 0.946022 -0.765293
3792 190 1 14.927991 0.908417 -0.881194
3793 190 1 15.897991 0.809397 -0.840216
3794 190 1 16.867991 0.830977 -0.836084
3795 190 1 17.837991 0.813108 -0.789829
3796 190 1 18.807991 0.776854 -0.718661
3797 190 1 19.777991 0.942113 -0.888155
3798 190 1 20.747991 0.829220 -0.872004
3799 190 1 21.717991 0.781180 -0.744640
3800 190 1 22.687991 0.777571 -0.820562
3801 191 1 6.093005 2.079411 2.130180
3802 191 1 7.063005 2.216274 2.013671
3803 191 1 8.033005 2.106482 2.064125
3804 191 1 9.003005 2.105693 2.006049
3805 191 1 9.973005 2.175722 2.132181
3806 191 1 10.943005 2.167451 2.086833
3807 191 1 11.913005 2.126903 2.185879
3808 191 1 12.883005 2.146131 2.047017
3809 191 1 13.853005 2.161664 2.108458
3810 191 1 14.823005 2.199087 2.120037
3811 191 1 15.793005 2.098124 2.040747
3812 191 1 16.763005 2.210863 2.093648
3813 191 1 17.733005 2.109250 2.128947
3814 191 1 18.703005 2.165277 2.142177
3815 191 1 19.673005 2.083075 2.190064
3816 191 1 20.643005 2.093961 2.173703
3817 191 1 21.613005 2.220933 2.005376
3818 191 1 22.583005 2.200178 2.162530
3819 191 1 23.553005 2.141414 2.170764
3820 191 1 24.523005 2.131053 2.118385
3821 192 1 4.265025 4.536793 -8.419019
3822 192 1 5.235025 4.728713 -8.432982
3823 192 1 6.205025 4.584650 -8.427354
3824 192 1 7.175025 4.617723 -8.292617
3825 192 1 8.145025 4.726535 -8.387219
3826 192 1 9.115025 4.704718 -8.385651
3827 192 1 10.085025 4.637367 -8.282839
3828 192 1 11.055025 4.632900 -8.278141
3829 192 1 12.025025 4.616656 -8.432082
3830 192 1 12.995025 4.714627 -8.259671
3831 192 1 13.965025 4.541773 -8.387068
3832 192 1 14.935025 4.710183 -8.383079
3833 192 1 15.905025 4.609389 -8.430875
3834 192 1 16.875025 4.649632 -8.340104
3835 192 1 17.845025 4.538481 -8.407102
3836 192 1 18.815025 4.623336 -8.373061
3837 192 1 19.785025 4.608184 -8.443063
3838 192 1 20.755025 4.573001 -8.323021
3839 192 1 21.725025 4.635474 -8.258642
3840 192 1 22.695025 4.621093 -8.321388
3841 193 1 -7.289416 -3.017177 -2.572800
3842 193 1 -6.319416 -3.060082 -2.556464
3843 193 1 -5.349416 -2.925415 -2.522886
3844 193 1 -4.379416 -2.929862 -2.395565
3845 193 1 -3.409416 -3.018424 -2.410847
3846 193 1 -2.439416 -2.894653 -2.482285
3847 193 1 -1.469416 -3.044656 -2.384296
3848 193 1 -0.499416 -2.986772 -2.412070
3849 193 1 0.470584 -2.897547 -2.555489
3850 193 1 1.440584 -2.940418 -2.548292
3851 193 1 2.410584 -3.065893 -2.384774
3852 193 1 3.380584 -3.059352 -2.453249
3853 193 1 4.350584 -2.926891 -2.489241
3854 193 1 5.320584 -2.997427 -2.449197
3855 193 1 6.290584 -2.901543 -2.505871
3856 193 1 7.260584 -3.054911 -2.498667
3857 193 1 8.230584 -3.006693 -2.438625
3858 193 1 9.200584 -2.997117 -2.431293
3859 193 1 10.170584 -2.918916 -2.478398
3860 193 1 11.140584 -3.034104 -2.384567
3861 194 1 -4.269390 -6.226409 -8.604053
3862 194 1 -3.299390 -6.385360 -8.666959
3863 194 1 -2.329390 -6.290112 -8.654866
3864 194 1 -1.359390 -6.385234 -8.612425
3865 194 1 -0.389390 -6.264488 -8.669731
3866 194 1 0.580610 -6.364347 -8.655703
3867 194 1 1.550610 -6.250321 -8.686718
3868 194 1 2.520610 -6.261145 -8.692652
3869 194 1 3.490610 -6.208530 -8.606531
3870 194 1 4.460610 -6.226572 -8.506602
3871 194 1 5.430610 -6.309038 -8.621744
3872 194 1 6.400610 -6.245772 -8.559041
3873 194 1 7.370610 -6.262358 -8.639978
3874 194 1 8.340610 -6.254326 -8.509873
3875 194 1 9.310610 -6.282631 -8.620169
3876 194 1 10.280610 -6.392933 -8.518744
3877 194 1 11.250610 -6.248143 -8.534189
3878 194 1 12.220610 -6.299202 -8.599826
3879 194 1 13.190610 -6.275101 -8.596997
3880 194 1 14.160610 -6.209285 -8.604641
3881 195 1 -4.428035 2.498995 -6.512716
3882 195 1 -3.458035 2.426685 -6.420650
3883 195 1 -2.488035 2.507186 -6.522482
3884 195 1 -1.518035 2.546479 -6.441126
3885 195 1 -0.548035 2.560959 -6.339544
3886 195 1 0.421965 2.504321 -6.458240
3887 195 1 1.391965 2.429257 -6.432414
3888 195 1 2.361965 2.513801 -6.407814
3889 195 1 3.331965 2.524915 -6.527717
3890 195 1 4.301965 2.492375 -6.382484
3891 195 1 5.271965 2.481644 -6.381019
3892 195 1 6.241965 2.454918 -6.418021
3893 195 1 7.211965 2.462639 -6.347556
3894 195 1 8.181965 2.525560 -6.433156
3895 195 1 9.151965 2.407854 -6.351694
3896 195 1 10.121965 2.372994 -6.350120
3897 195 1 11.091965 2.467574 -6.428489
3898 195 1 12.061965 2.490817 -6.430551
3899 195 1 13.031965 2.527296 -6.395232
3900 195 1 14.001965 2.524087 -6.358325
3901 196 1 -9.709260 -5.610466 -5.963562
3902 196 1 -8.739260 -5.593625 -6.030610
3903 196 1 -7.769260 -5.491905 -5.975875
3904 196 1 -6.799260 -5.439040 -6.028087
3905 196 1 -5.829260 -5.437219 -5.899523
3906 196 1 -4.859260 -5.553799 -5.901767
3907 196 1 -3.889260 -5.444232 -5.963014
3908 196 1 -2.919260 -5.474638 -5.889942
3909 196 1 -1.949260 -5.631530 -5.928776
3910 196 1 -0.979260 -5.450996 -5.980424
3911 196 1 -0.009260 -5.537666 -6.020810
3912 196 1 0.960740 -5.601229 -5.909540
3913 196 1 1.930740 -5.490821 -5.939992
3914 196 1 2.900740 -5.623059 -5.862605
3915 196 1 3.870740 -5.474601 -5.856710
3916 196 1 4.840740 -5.626074 -5.877029
3917 196 1 5.810740 -5.483658 -6.010066
3918 196 1 6.780740 -5.438497 -6.010376
3919 196 1 7.750740 -5.588449 -5.904566
3920 196 1 8.720740 -5.612647 -6.019046
3921 197 1 -1.976967 6.214534 -2.459854
3922 197 1 -1.006967 6.182372 -2.393540
3923 197 1 -0.036967 6.089437 -2.397790
3924 197 1 0.933033 6.208417 -2.458448
3925 197 1 1.903033 6.116958 -2.331655
3926 197 1 2.873033 6.207148 -2.381392
3927 197 1 3.843033 6.194326 -2.385959
3928 197 1 4.813033 6.220933 -2.351384
3929 197 1 5.783033 6.142502 -2.354650
3930 197 1 6.753033 6.236668 -2.437544
3931 197 1 7.723033 6.272053 -2.475375
3932 197 1 8.693033 6.137307 -2.430382
3933 197 1 9.663033 6.244632 -2.439823
3934 197 1 10.633033 6.112851 -2.415457
3935 197 1 11.603033 6.170004 -2.469250
3936 197 1 12.573033 6.260754 -2.327588
3937 197 1 13.543033 6.188478 -2.440972
3938 197 1 14.513033 6.202782 -2.332957
3939 197 1 15.483033 6.253519 -2.419011
3940 197 1 16.453033 6.088282 -2.476392
3941 198 1 -5.579388 5.524328 -2.739702
3942 198 1 -4.609388 5.397859 -2.719448
3943 198 1 -3.639388 5.497872 -2.673865
3944 198 1 -2.669388 5.422927 -2.708539
3945 198 1 -1.699388 5.429086 -2.762549
3946 198 1 -0.729388 5.461758 -2.780150
3947 198 1 0.240612 5.533605 -2.643656
3948 198 1 1.210612 5.361635 -2.793345
3949 198 1 2.180612 5.412057 -2.747312
3950 198 1 3.150612 5.459075 -2.645822
3951 198 1 4.120612 5.467375 -2.789275
3952 198 1 5.090612 5.537276 -2.804668
3953 198 1 6.060612 5.401640 -2.636214
3954 198 1 7.030612 5.451703 -2.620785
3955 198 1 8.000612 5.400112 -2.658083
3956 198 1 8.970612 5.465738 -2.666488
3957 198 1 9.940612 5.379909 -2.641142
3958 198 1 10.910612 5.482696 -2.787132
3959 198 1 11.880612 5.387008 -2.801210
3960 198 1 12.850612 5.404253 -2.622116
3961 199 1 1.294403 -0.695046 8.568358
3962 199 1 2.264403 -0.748969 8.510812
3963 199 1 3.234403 -0.704907 8.557786
3964 199 1 4.204403 -0.705255 8.521641
3965 199 1 5.174403 -0.852476 8.528884
3966 199 1 6.144403 -0.741723 8.571522
3967 199 1 7.114403 -0.694665 8.540827
3968 199 1 8.084403 -0.777162 8.435181
3969 199 1 9.054403 -0.794986 8.520745
3970 199 1 10.024403 -0.766142 8.514165
3971 199 1 10.994403 -0.788117 8.544007
3972 199 1 11.964403 -0.713996 8.509892
3973 199 1 12.934403 -0.669632 8.558706
3974 199 1 13.904403 -0.704463 8.579668
3975 199 1 14.874403 -0.734183 8.438902
3976 199 1 15.844403 -0.724622 8.583881
3977 199 1 16.814403 -0.694444 8.401737
3978 199 1 17.784403 -0.864565 8.504098
3979 199 1 18.754403 -0.830813 8.507328
3980 199 1 19.724403 -0.746531 8.508925
3981 200 1 -7.152918 -4.994942 6.515006
3982 200 1 -6.182918 -5.003746 6.592854
3983 200 1 -5.212918 -5.109586 6.514480
3984 200 1 -4.242918 -5.148414 6.501383
3985 200 1 -3.272918 -5.124344 6.502656
3986 200 1 -2.302918 -5.173910 6.604933
3987 200 1 -1.332918 -5.116900 6.512725
3988 200 1 -0.362918 -5.112098 6.601026
3989 200 1 0.607082 -5.146302 6.520844
3990 200 1 1.577082 -4.990647 6.609957
3991 200 1 2.547082 -5.137483 6.527229
3992 200 1 3.517082 -5.050877 6.597177
3993 200 1 4.487082 -5.060336 6.494992
3994 200 1 5.457082 -5.180731 6.460788
3995 200 1 6.427082 -5.028616 6.542966
3996 200 1 7.397082 -5.061098 6.438982
3997 200 1 8.367082 -5.095961 6.434547
3998 200 1 9.337082 -5.030307 6.445959
3999 200 1 10.307082 -5.041823 6.555036
4000 200 1 11.277082 -5.090881 6.598758
4001 201 1 1.175698 6.449852 -6.581055
4002 201 1 2.145698 6.489711 -6.654253
4003 201 1 3.115698 6.523989 -6.569268
4004 201 1 4.085698 6.443658 -6.647590
4005 201 1 5.055698 6.352871 -6.626383
4006 201 1 6.025698 6.516593 -6.604552
4007 201 1 6.995698 6.404486 -6.723073
4008 201 1 7.965698 6.374121 -6.659606
4009 201 1 8.935698 6.507367 -6.557288
4010 201 1 9.905698 6.456505 -6.718302
4011 201 1 10.875698 6.445538 -6.743315
4012 201 1 11.845698 6.370240 -6.567934
4013 201 1 12.815698 6.496319 -6.619536
4014 201 1 13.785698 6.393910 -6.716374
4015 201 1 14.755698 6.352501 -6.691902
4016 201 1 15.725698 6.490770 -6.680420
4017 201 1 16.695698 6.374223 -6.629761
4018 201 1 17.665698 6.467788 -6.628247
4019 201 1 18.635698 6.365771 -6.652963
4020 201 1 19.605698 6.435173 -6.669467
4021 202 1 9.642885 7.909514 -4.457083
4022 202 1 10.612885 7.800958 -4.502906
4023 202 1 11.582885 7.934077 -4.491005
4024 202 1 12.552885 7.763461 -4.381208
4025 202 1 13.522885 7.833735 -4.469595
4026 202 1 14.492885 7.824311 -4.471078
4027 202 1 15.462885 7.837602 -4.483372
4028 202 1 16.432885 7.935474 -4.485734
4029 202 1 17.402885 7.787571 -4.376118
4030 202 1 18.372885 7.777261 -4.421479
4031 202 1 19.342885 7.892664 -4.543606
4032 202 1 20.312885 7.803285 -4.379311
4033 202 1 21.282885 7.880138 -4.555042
4034 202 1 22.252885 7.813796 -4.506685
4035 202 1 23.222885 7.785059 -4.386160
4036 202 1 24.192885 7.905345 -4.375321
4037 202 1 25.162885 7.764297 -4.459029
4038 202 1 26.132885 7.930046 -4.449240
4039 202 1 27.102885 7.872988 -4.376459
4040 202 1 28.072885 7.809961 -4.515307
4041 203 1 -4.610640 8.856013 7.685302
4042 203 1 -3.640640 8.818171 7.685171
4043 203 1 -2.670640 8.843642 7.663925
4044 203 1 -1.700640 8.885959 7.631456
4045 203 1 -0.730640 8.912343 7.767502
4046 203 1 0.239360 8.899081 7.620940
4047 203 1 1.209360 8.863771 7.783701
4048 203 1 2.179360 8.933024 7.801088
4049 203 1 3.149360 8.868333 7.666547
4050 203 1 4.119360 8.783452 7.733018
4051 203 1 5.089360 8.803424 7.721575
4052 203 1 6.059360 8.917769 7.618665
4053 203 1 7.029360 8.820503 7.669748
4054 203 1 7.999360 8.922602 7.673143
4055 203 1 8.969360 8.858902 7.769013
4056 203 1 9.939360 8.902639 7.769634
4057 203 1 10.909360 8.852283 7.674707
4058 203 1 11.879360 8.886465 7.641686
4059 203 1 12.849360 8.781627 7.758163
4060 203 1 13.819360 8.880572 7.648994
4061 204 1 1.663228 1.058714 7.031910
4062 204 1 2.633228 1.075148 7.197116
4063 204 1 3.603228 1.180579 7.204645
4064 204 1 4.573228 1.175437 7.095515
4065 204 1 5.543228 1.045738 7.027654
4066 204 1 6.513228 1.170628 7.070797
4067 204 1 7.483228 1.020112 7.175875
4068 204 1 8.453228 1.180497 7.162314
4069 204 1 9.423228 1.101293 7.159407
4070 204 1 10.393228 1.042157 7.217740
4071 204 1 11.363228 1.003903 7.190767
4072 204 1 12.333228 1.125222 7.164399
4073 204 1 13.303228 1.147969 7.200262
4074 204 1 14.273228 1.020023 7.087616
4075 204 1 15.243228 1.000144 7.110771
4076 204 1 16.213228 1.167971 7.095885
4077 204 1 17.183228 1.117325 7.190146
4078 204 1 18.153228 1.013573 7.069527
4079 204 1 19.123228 1.150354 7.214177
4080 204 1 20.093228 1.192525 7.169164
4081 205 1 -4.329831 3.951469 -1.609877
4082 205 1 -3.359831 3.800150 -1.667640
4083 205 1 -2.389831 3.808875 -1.658821
4084 205 1 -1.419831 3.886073 -1.739513
4085 205 1 -0.449831 3.785185 -1.719098
4086 205 1 0.520169 3.802956 -1.696957
4087 205 1 1.490169 3.972512 -1.573308
4088 205 1 2.460169 3.907632 -1.679283
4089 205 1 3.430169 3.905628 -1.671192
4090 205 1 4.400169 3.968828 -1.575939
4091 205 1 5.370169 3.859490 -1.740774
4092 205 1 6.340169 3.812676 -1.599865
4093 205 1 7.310169 3.897205 -1.616899
4094 205 1 8.280169 3.788124 -1.703681
4095 205 1 9.250169 3.825596 -1.697976
4096 205 1 10.220169 3.933432 -1.645691
4097 205 1 11.190169 3.794463 -1.601581
4098 205 1 12.160169 3.965263 -1.718852
4099 205 1 13.130169 3.976189 -1.680341
4100 205 1 14.100169 3.887594 -1.772951
4101 206 1 -4.045436 7.097831 -1.108143
4102 206 1 -3.075436 7.243406 -1.199446
4103 206 1 -2.105436 7.261434 -1.065859
4104 206 1 -1.135436 7.150766 -1.201894
4105 206 1 -0.165436 7.237909 -1.111671
4106 206 1 0.804564 7.197105 -1.175642
4107 206 1 1.774564 7.265668 -1.158540
4108 206 1 2.744564 7.096624 -1.076751
4109 206 1 3.714564 7.159548 -1.147901
4110 206 1 4.684564 7.121339 -1.140090
4111 206 1 5.654564 7.147516 -1.081874
4112 206 1 6.624564 7.139083 -1.172723
4113 206 1 7.594564 7.079273 -1.094885
4114 206 1 8.564564 7.141767 -1.190583
4115 206 1 9.534564 7.116793 -1.056354
4116 206 1 10.504564 7.262845 -1.047709
4117 206 1 11.474564 7.178481 -1.173548
4118 206 1 12.444564 7.258905 -1.025522
4119 206 1 13.414564 7.093871 -1.138663
4120 206 1 14.384564 7.206341 -1.156447
4121 207 1 3.989975 6.101608 -7.671077
4122 207 1 4.959975 6.102035 -7.641171
4123 207 1 5.929975 6.211604 -7.527573
4124 207 1 6.899975 6.133327 -7.579949
4125 207 1 7.869975 6.102813 -7.631506
4126 207 1 8.839975 6.146570 -7.524589
4127 207 1 9.809975 6.180755 -7.506690
4128 207 1 10.779975 6.187986 -7.500213
4129 207 1 11.749975 6.078859 -7.533030
4130 207 1 12.719975 6.206168 -7.504896
4131 207 1 13.689975 6.060283 -7.534191
4132 207 1 14.659975 6.141833 -7.559369
4133 207 1 15.629975 6.153106 -7.645845
4134 207 1 16.599975 6.133988 -7.645338
4135 207 1 17.569975 6.165731 -7.501045
4136 207 1 18.539975 6.163620 -7.510660
4137 207 1 19.509975 6.242525 -7.571186
4138 207 1 20.479975 6.245479 -7.486867
4139 207 1 21.449975 6.234696 -7.528357
4140 207 1 22.419975 6.063444 -7.628570
4141 208 1 -9.558731 6.381070 7.959896
4142 208 1 -8.588731 6.345061 7.878561
4143 208 1 -7.618731 6.273707 7.944042
4144 208 1 -6.648731 6.369538 7.838421
4145 208 1 -5.678731 6.310783 7.875864
4146 208 1 -4.708731 6.271394 7.841750
4147 208 1 -3.738731 6.361423 7.965540
4148 208 1 -2.768731 6.388107 7.786392
4149 208 1 -1.798731 6.297461 7.840081
4150 208 1 -0.828731 6.410765 7.930118
4151 208 1 0.141269 6.258314 7.916952
4152 208 1 1.111269 6.303350 7.930527
4153 208 1 2.081269 6.254167 7.848383
4154 208 1 3.051269 6.319507 7.792219
4155 208 1 4.021269 6.334753 7.976369
4156 208 1 4.991269 6.252000 7.796093
4157 208 1 5.961269 6.397595 7.977893
4158 208 1 6.931269 6.430750 7.842107
4159 208 1 7.901269 6.377310 7.785250
4160 208 1 8.871269 6.404955 7.790830
4161 209 1 4.323655 -5.301692 -9.254243
4162 209 1 5.293655 -5.275192 -9.236032
4163 209 1 6.263655 -5.190430 -9.199337
4164 209 1 7.233655 -5.276663 -9.164290
4165 209 1 8.203655 -5.192903 -9.282766
4166 209 1 9.173655 -5.200298 -9.302000
4167 209 1 10.143655 -5.278959 -9.247243
4168 209 1 11.113655 -5.255941 -9.336337
4169 209 1 12.083655 -5.127534 -9.335734
4170 209 1 13.053655 -5.309651 -9.212327
4171 209 1 14.023655 -5.242414 -9.168997
4172 209 1 14.993655 -5.217644 -9.299720
4173 209 1 15.963655 -5.252122 -9.302882
4174 209 1 16.933655 -5.316149 -9.187713
4175 209 1 17.903655 -5.157565 -9.352980
4176 209 1 18.873655 -5.165169 -9.334692
4177 209 1 19.843655 -5.157670 -9.256619
4178 209 1 20.813655 -5.194171 -9.214612
4179 209 1 21.783655 -5.211530 -9.233563
4180 209 1 22.753655 -5.321804 -9.295055
4181 210 1 -7.327298 7.170234 7.016117
4182 210 1 -6.357298 7.125240 7.094143
4183 210 1 -5.387298 7.113064 6.954622
4184 210 1 -4.417298 7.156434 7.109233
4185 210 1 -3.447298 7.133970 7.126589
4186 210 1 -2.477298 7.080903 7.001400
4187 210 1 -1.507298 7.155017 7.015067
4188 210 1 -0.537298 7.055077 7.048836
4189 210 1 0.432702 7.060575 7.041750
4190 210 1 1.402702 7.077109 6.941898
4191 210 1 2.372702 7.014394 7.013496
4192 210 1 3.342702 7.066559 7.092294
4193 210 1 4.312702 7.185356 7.014515
4194 210 1 5.282702 7.046749 7.089080
4195 210 1 6.252702 7.084290 6.965399
4196 210 1 7.222702 7.086679 6.951121
4197 210 1 8.192702 7.048426 7.094947
4198 210 1 9.162702 7.180654 7.117937
4199 210 1 10.132702 7.121509 7.003019
4200 210 1 11.102702 7.060731 7.101017
4201 211 1 -8.045301 4.039129 2.934373
4202 211 1 -7.075301 4.141230 2.976966
4203 211 1 -6.105301 4.117077 3.026168
4204 211 1 -5.135301 4.018334 3.022901
4205 211 1 -4.165301 4.138289 2.873507
4206 211 1 -3.195301 3.993672 2.858681
4207 211 1 -2.225301 4.092179 2.995672
4208 211 1 -1.255301 4.124314 2.969658
4209 211 1 -0.285301 3.981151 2.981150
4210 211 1 0.684699 3.985608 3.034031
4211 211 1 1.654699 3.992728 2.900865
4212 211 1 2.624699 4.142378 2.944788
4213 211 1 3.594699 3.985282 2.924126
4214 211 1 4.564699 4.064355 2.991594
4215 211 1 5.534699 4.121643 2.917462
4216 211 1 6.504699 4.001228 3.005941
4217 211 1 7.474699 4.058723 2.887204
4218 211 1 8.444699 4.068009 2.984101
4219 211 1 9.414699 4.137202 2.938716
4220 211 1 10.384699 4.032222 2.911280
4221 212 1 4.762724 -9.383247 -1.431010
4222 212 1 5.732724 -9.309888 -1.482095
4223 212 1 6.702724 -9.380683 -1.449904
4224 212 1 7.672724 -9.416714 -1.431522
4225 212 1 8.642724 -9.338169 -1.359402
4226 212 1 9.612724 -9.450476 -1.441223
4227 212 1 10.582724 -9.439057 -1.460824
4228 212 1 11.552724 -9.485285 -1.306531
4229 212 1 12.522724 -9.301074 -1.476320
4230 212 1 13.492724 -9.457323 -1.352114
4231 212 1 14.462724 -9.332256 -1.427118
4232 212 1 15.432724 -9.416270 -1.377550
4233 212 1 16.402724 -9.336341 -1.462574
4234 212 1 17.372724 -9.485932 -1.419591
4235 212 1 18.342724 -9.331919 -1.440525
4236 212 1 19.312724 -9.317048 -1.311865
4237 212 1 20.282724 -9.393790 -1.352800
4238 212 1 21.252724 -9.361832 -1.337433
4239 212 1 22.222724 -9.424282 -1.377553
4240 212 1 23.192724 -9.432961 -1.314197
4241 213 1 -8.350599 7.456772 -6.679744
4242 213 1 -7.380599 7.334968 -6.700408
4243 213 1 -6.410599 7.469925 -6.701700
4244 213 1 -5.440599 7.451736 -6.666498
4245 213 1 -4.470599 7.384652 -6.662052
4246 213 1 -3.500599 7.319417 -6.632467
4247 213 1 -2.530599 7.421693 -6.661176
4248 213 1 -1.560599 7.465616 -6.599328
4249 213 1 -0.590599 7.493408 -6.758090
4250 213 1 0.379401 7.459250 -6.703466
4251 213 1 1.349401 7.422413 -6.686337
4252 213 1 2.319401 7.489136 -6.754528
4253 213 1 3.289401 7.471009 -6.616999
4254 213 1 4.259401 7.399603 -6.782597
4255 213 1 5.229401 7.330852 -6.777081
4256 213 1 6.199401 7.452788 -6.624021
4257 213 1 7.169401 7.397614 -6.705196
4258 213 1 8.139401 7.348771 -6.747132
4259 213 1 9.109401 7.432705 -6.647193
4260 213 1 10.079401 7.393744 -6.691820
4261 214 1 -1.794909 3.259176 9.751063
4262 214 1 -0.824909 3.346557 9.720470
4263 214 1 0.145091 3.334171 9.745217
4264 214 1 1.115091 3.434033 9.720368
4265 214 1 2.085091 3.374071 9.704942
4266 214 1 3.055091 3.343049 9.836276
4267 214 1 4.025091 3.428429 9.714420
4268 214 1 4.995091 3.280938 9.823193
4269 214 1 5.965091 3.243197 9.729928
4270 214 1 6.935091 3.406638 9.885035
4271 214 1 7.905091 3.423782 9.735950
4272 214 1 8.875091 3.370161 9.841905
4273 214 1 9.845091 3.274839 9.737199
4274 214 1 10.815091 3.433294 9.726911
4275 214 1 11.785091 3.396425 9.869495
4276 214 1 12.755091 3.302976 9.839015
4277 214 1 13.725091 3.248148 9.854900
4278 214 1 14.695091 3.249060 9.740453
4279 214 1 15.665091 3.349541 9.743629
4280 214 1 16.635091 3.298384 9.761773
4281 215 1 -6.876756 -9.422875 6.542659
4282 215 1 -5.906756 -9.519023 6.689375
4283 215 1 -4.936756 -9.434749 6.531598
4284 215 1 -3.966756 -9.451858 6.719070
4285 215 1 -2.996756 -9.347878 6.606568
4286 215 1 -2.026756 -9.452246 6.603403
4287 215 1 -1.056756 -9.531543 6.640768
4288 215 1 -0.086756 -9.414191 6.620756
4289 215 1 0.883244 -9.355492 6.571312
4290 215 1 1.853244 -9.379595 6.673885
4291 215 1 2.823244 -9.344371 6.532699
4292 215 1 3.793244 -9.535418 6.701749
4293 215 1 4.763244 -9.534691 6.712716
4294 215 1 5.733244 -9.474314 6.610193
4295 215 1 6.703244 -9.519723 6.654976
4296 215 1 7.673244 -9.515335 6.669641
4297 215 1 8.643244 -9.449985 6.586577
4298 215 1 9.613244 -9.375573 6.719725
4299 215 1 10.583244 -9.387303 6.579921
4300 215 1 11.553244 -9.385810 6.531252
4301 216 1 -0.421356 1.448548 4.905521
4302 216 1 0.548644 1.344118 4.870943
4303 216 1 1.518644 1.474385 4.878734
4304 216 1 2.488644 1.450754 4.806948
4305 216 1 3.458644 1.510830 4.866035
4306 216 1 4.428644 1.422760 4.826638
4307 216 1 5.398644 1.435178 4.797615
4308 216 1 6.368644 1.458269 4.864364
4309 216 1 7.338644 1.370331 4.820738
4310 216 1 8.308644 1.501433 4.801834
4311 216 1 9.278644 1.408440 4.876912
4312 216 1 10.248644 1.467972 4.967551
4313 216 1 11.218644 1.372870 4.909408
4314 216 1 12.188644 1.348432 4.792442
4315 216 1 13.158644 1.398889 4.864131
4316 216 1 14.128644 1.498308 4.952754
4317 216 1 15.098644 1.437280 4.960400
4318 216 1 16.068644 1.485334 4.822586
4319 216 1 17.038644 1.471315 4.880834
4320 216 1 18.008644 1.443915 4.820461
4321 217 1 2.167255 8.581570 -5.365556
4322 217 1 3.137255 8.589225 -5.405064
4323 217 1 4.107255 8.541497 -5.488957
4324 217 1 5.077255 8.622307 -5.485794
4325 217 1 6.047255 8.476943 -5.353735
4326 217 1 7.017255 8.550151 -5.408243
4327 217 1 7.987255 8.532698 -5.507990
4328 217 1 8.957255 8.525824 -5.481440
4329 217 1 9.927255 8.538477 -5.498936
4330 217 1 10.897255 8.447705 -5.465735
4331 217 1 11.867255 8.541870 -5.366929
4332 217 1 12.837255 8.615860 -5.463090
4333 217 1 13.807255 8.533679 -5.385198
4334 217 1 14.777255 8.539177 -5.396179
4335 217 1 15.747255 8.457242 -5.391273
4336 217 1 16.717255 8.569921 -5.470157
4337 217 1 17.687255 8.436291 -5.433806
4338 217 1 18.657255 8.616312 -5.502399
4339 217 1 19.627255 8.618772 -5.369780
4340 217 1 20.597255 8.504802 -5.420624
4341 218 1 0.677691 5.254917 8.770676
4342 218 1 1.647691 5.324654 8.763874
4343 218 1 2.617691 5.320314 8.685143
4344 218 1 3.587691 5.328483 8.735810
4345 218 1 4.557691 5.299026 8.806386
4346 218 1 5.527691 5.214103 8.680943
4347 218 1 6.497691 5.187287 8.678865
4348 218 1 7.467691 5.332373 8.723762
4349 218 1 8.437691 5.206150 8.739018
4350 218 1 9.407691 5.169114 8.827403
4351 218 1 10.377691 5.278931 8.845938
4352 218 1 11.347691 5.164449 8.689772
4353 218 1 12.317691 5.319077 8.756018
4354 218 1 13.287691 5.204734 8.697053
4355 218 1 14.257691 5.248363 8.713692
4356 218 1 15.227691 5.216601 8.689912
4357 218 1 16.197691 5.295973 8.867426
4358 218 1 17.167691 5.156499 8.755625
4359 218 1 18.137691 5.173399 8.692687
4360 218 1 19.107691 5.254139 8.864588
4361 219 1 9.523878 3.080430 -0.154140
4362 219 1 10.493878 2.992110 -0.155471
4363 219 1 11.463878 2.921700 -0.279681
4364 219 1 12.433878 2.989898 -0.170832
4365 219 1 13.403878 2.955510 -0.150080
4366 219 1 14.373878 2.916354 -0.216238
4367 219 1 15.343878 3.013364 -0.107133
4368 219 1 16.313878 2.949496 -0.200315
4369 219 1 17.283878 3.064886 -0.157372
4370 219 1 18.253878 2.966113 -0.195687
4371 219 1 19.223878 3.073430 -0.260288
4372 219 1 20.193878 3.086475 -0.179435
4373 219 1 21.163878 3.036207 -0.107847
4374 219 1 22.133878 2.973574 -0.162380
4375 219 1 23.103878 3.017674 -0.185204
4376 219 1 24.073878 2.943757 -0.273909
4377 219 1 25.043878 2.970543 -0.126467
4378 219 1 26.013878 2.948653 -0.177455
4379 219 1 26.983878 2.938373 -0.221909
4380 219 1 27.953878 2.990736 -0.216161
4381 220 1 -9.558409 -0.835809 6.205155
4382 220 1 -8.588409 -0.772053 6.135173
4383 220 1 -7.618409 -0.760991 6.232437
4384 220 1 -6.648409 -0.863135 6.156811
4385 220 1 -5.678409 -0.820093 6.075047
4386 220 1 -4.708409 -0.794144 6.171003
4387 220 1 -3.738409 -0.817008 6.237970
4388 220 1 -2.768409 -0.865694 6.132499
4389 220 1 -1.798409 -0.824748 6.262557
4390 220 1 -0.828409 -0.889626 6.107012
4391 220 1 0.141591 -0.840441 6.186653
4392 220 1 1.111591 -0.867064 6.080492
4393 220 1 2.081591 -0.857696 6.072463
4394 220 1 3.051591 -0.755514 6.123093
4395 220 1 4.021591 -0.890644 6.086391
4396 220 1 4.991591 -0.900070 6.235690
4397 220 1 5.961591 -0.865165 6.239539
4398 220 1 6.931591 -0.913384 6.137018
4399 220 1 7.901591 -0.793421 6.193309
4400 220 1 8.871591 -0.812924 6.084189
4401 221 1 -9.598179 -4.153285 6.467936
4402 221 1 -8.628179 -4.004731 6.465096
4403 221 1 -7.658179 -4.178857 6.628975
4404 221 1 -6.688179 -4.123254 6.451186
4405 221 1 -5.718179 -4.135187 6.483141
4406 221 1 -4.748179 -4.019216 6.544987
4407 221 1 -3.778179 -4.098100 6.466306
4408 221 1 -2.808179 -4.096341 6.557037
4409 221 1 -1.838179 -4.150141 6.500160
4410 221 1 -0.868179 -4.167689 6.576200
4411 221 1 0.101821 -4.106841 6.561711
4412 221 1 1.071821 -4.056254 6.590316
4413 221 1 2.041821 -4.187649 6.592952
4414 221 1 3.011821 -4.123497 6.472508
4415 221 1 3.981821 -4.116740 6.578714
4416 221 1 4.951821 -4.074800 6.480387
4417 221 1 5.921821 -4.079331 6.593187
4418 221 1 6.891821 -4.142266 6.633685
4419 221 1 7.861821 -4.063756 6.527295
4420 221 1 8.831821 -4.127187 6.540499
4421 222 1 5.084907 8.983427 -5.654963
4422 222 1 6.054907 8.881105 -5.564127
4423 222 1 7.024907 8.875483 -5.639994
4424 222 1 7.994907 8.985765 -5.578682
4425 222 1 8.964907 8.906556 -5.543110
4426 222 1 9.934907 8.850487 -5.532704
4427 222 1 10.904907 8.888385 -5.587743
4428 222 1 11.874907 8.848387 -5.572239
4429 222 1 12.844907 9.000505 -5.528263
4430 222 1 13.814907 8.994490 -5.544049
4431 222 1 14.784907 8.927296 -5.655317
4432 222 1 15.754907 9.005765 -5.611778
4433 222 1 16.724907 9.019458 -5.626000
4434 222 1 17.694907 8.966941 -5.567467
4435 222 1 18.664907 8.919520 -5.548802
4436 222 1 19.634907 8.951727 -5.598929
4437 222 1 20.604907 8.892730 -5.504062
4438 222 1 21.574907 8.999204 -5.631458
4439 222 1 22.544907 8.939416 -5.674181
4440 222 1 23.514907 8.876207 -5.642189
4441 223 1 8.658350 7.906922 3.815378
4442 223 1 9.628350 7.947647 3.833800
4443 223 1 10.598350 7.956271 3.835812
4444 223 1 11.568350 7.914838 3.712459
4445 223 1 12.538350 7.900001 3.667868
4446 223 1 13.508350 7.916281 3.817430
4447 223 1 14.478350 7.778494 3.726124
4448 223 1 15.448350 7.896729 3.749509
4449 223 1 16.418350 7.784807 3.778714
4450 223 1 17.388350 7.852874 3.778507
4451 223 1 18.358350 7.909809 3.757802
4452 223 1 19.328350 7.958325 3.720355
4453 223 1 20.298350 7.872643 3.797075
4454 223 1 21.268350 7.781610 3.789273
4455 223 1 22.238350 7.822539 3.739618
4456 223 1 23.208350 7.780706 3.728044
4457 223 1 24.178350 7.823680 3.765034
4458 223 1 25.148350 7.805824 3.859690
4459 223 1 26.118350 7.830086 3.835944
4460 223 1 27.088350 7.941342 3.860498
4461 224 1 -6.789555 5.129563 8.231265
4462 224 1 -5.819555 5.131100 8.324727
4463 224 1 -4.849555 5.144642 8.339686
4464 224 1 -3.879555 5.069442 8.273032
4465 224 1 -2.909555 5.110569 8.154215
4466 224 1 -1.939555 5.116730 8.243549
4467 224 1 -0.969555 5.061814 8.159673
4468 224 1 0.000445 5.049325 8.194080
4469 224 1 0.970445 5.106207 8.301260
4470 224 1 1.940445 5.129895 8.328712
4471 224 1 2.910445 5.149966 8.204972
4472 224 1 3.880445 5.106435 8.201311
4473 224 1 4.850445 5.158163 8.144648
4474 224 1 5.820445 5.020092 8.236575
4475 224 1 6.790445 4.998333 8.247025
4476 224 1 7.760445 5.148287 8.162590
4477 224 1 8.730445 4.991044 8.189910
4478 224 1 9.700445 5.131102 8.279920
4479 224 1 10.670445 5.161824 8.144004
4480 224 1 11.640445 4.994836 8.216533
4481 225 1 -8.702567 -6.378531 5.643033
4482 225 1 -7.732567 -6.359823 5.755333
4483 225 1 -6.762567 -6.374363 5.631317
4484 225 1 -5.792567 -6.379256 5.623938
4485 225 1 -4.822567 -6.492589 5.651138
4486 225 1 -3.852567 -6.385500 5.581389
4487 225 1 -2.882567 -6.524483 5.631628
4488 225 1 -1.912567 -6.485209 5.705786
4489 225 1 -0.942567 -6.416956 5.647451
4490 225 1 0.027433 -6.340368 5.590057
4491 225 1 0.997433 -6.437590 5.576887
4492 225 1 1.967433 -6.499376 5.680450
4493 225 1 2.937433 -6.342429 5.584558
4494 225 1 3.907433 -6.426664 5.683282
4495 225 1 4.877433 -6.341192 5.692301
4496 225 1 5.847433 -6.523124 5.760100
4497 225 1 6.817433 -6.523592 5.724092
4498 225 1 7.787433 -6.404286 5.612193
4499 225 1 8.757433 -6.361943 5.607058
4500 225 1 9.727433 -6.531806 5.716544
4501 226 1 8.050125 7.603838 5.263438
4502 226 1 9.020125 7.577481 5.086745
4503 226 1 9.990125 7.543821 5.156941
4504 226 1 10.960125 7.569730 5.099542
4505 226 1 11.930125 7.618347 5.122249
4506 226 1 12.900125 7.551919 5.240853
4507 226 1 13.870125 7.539472 5.127606
4508 226 1 14.840125 7.625101 5.094965
4509 226 1 15.810125 7.488468 5.229312
4510 226 1 16.780125 7.674794 5.113497
4511 226 1 17.750125 7.488624 5.099496
4512 226 1 18.720125 7.636606 5.096274
4513 226 1 19.690125 7.644106 5.252046
4514 226 1 20.660125 7.510694 5.190660
4515 226 1 21.630125 7.582955 5.223783
4516 226 1 22.600125 7.593078 5.219110
4517 226 1 23.570125 7.496322 5.267581
4518 226 1 24.540125 7.613812 5.097028
4519 226 1 25.510125 7.652082 5.241377
4520 226 1 26.480125 7.664146 5.098163
4521 227 1 9.988106 1.631641 0.077286
4522 227 1 10.958106 1.577636 -0.033959
4523 227 1 11.928106 1.561902 -0.074180
4524 227 1 12.898106 1.512949 -0.094715
4525 227 1 13.868106 1.613854 0.020550
4526 227 1 14.838106 1.645874 0.007542
4527 227 1 15.808106 1.594338 -0.001177
4528 227 1 16.778106 1.518546 0.058259
4529 227 1 17.748106 1.658471 -0.060302
4530 227 1 18.718106 1.626246 -0.073793
4531 227 1 19.688106 1.559263 -0.036925
4532 227 1 20.658106 1.520407 0.013817
4533 227 1 21.628106 1.687210 -0.104271
4534 227 1 22.598106 1.572826 -0.026316
4535 227 1 23.568106 1.648365 -0.047816
4536 227 1 24.538106 1.567890 -0.035187
4537 227 1 25.508106 1.603571 -0.035171
4538 227 1 26.478106 1.572243 -0.041452
4539 227 1 27.448106 1.579559 -0.021856
4540 227 1 28.418106 1.548787 0.007096
4541 228 1 8.986457 -2.243249 5.625733
4542 228 1 9.956457 -2.336370 5.636352
4543 228 1 10.926457 -2.236269 5.665482
4544 228 1 11.896457 -2.290494 5.580192
4545 228 1 12.866457 -2.170104 5.623647
4546 228 1 13.836457 -2.347299 5.668157
4547 228 1 14.806457 -2.173745 5.612624
4548 228 1 15.776457 -2.258089 5.621779
4549 228 1 16.746457 -2.252061 5.517500
4550 228 1 17.716457 -2.162796 5.619225
4551 228 1 18.686457 -2.312740 5.525558
4552 228 1 19.656457 -2.248515 5.625670
4553 228 1 20.626457 -2.258548 5.670684
4554 228 1 21.596457 -2.233376 5.566658
4555 228 1 22.566457 -2.299533 5.559908
4556 228 1 23.536457 -2.241731 5.617985
4557 228 1 24.506457 -2.338135 5.578305
4558 228 1 25.476457 -2.249827 5.585817
4559 228 1 26.446457 -2.190578 5.704730
4560 228 1 27.416457 -2.247387 5.530645
4561 229 1 4.759037 -2.379714 4.027347
4562 229 1 5.729037 -2.439382 4.004775
4563 229 1 6.699037 -2.263651 4.180024
4564 229 1 7.669037 -2.286385 4.023913
4565 229 1 8.639037 -2.413736 4.048678
4566 229 1 9.609037 -2.318206 4.053728
4567 229 1 10.579037 -2.428164 4.126828
4568 229 1 11.549037 -2.300194 4.161349
4569 229 1 12.519037 -2.424143 4.155974
4570 229 1 13.489037 -2.380908 4.102879
4571 229 1 14.459037 -2.374905 4.135693
4572 229 1 15.429037 -2.291497 4.014030
4573 229 1 16.399037 -2.365992 4.117667
4574 229 1 17.369037 -2.255527 4.139704
4575 229 1 18.339037 -2.411181 4.059876
4576 229 1 19.309037 -2.321877 4.147846
4577 229 1 20.279037 -2.328488 4.202131
4578 229 1 21.249037 -2.401455 4.050101
4579 229 1 22.219037 -2.276607 4.179553
4580 229 1 23.189037 -2.416058 4.048317
4581 230 1 -5.168064 4.042088 -3.862320
4582 230 1 -4.198064 4.155799 -3.717160
4583 230 1 -3.228064 4.091201 -3.851289
4584 230 1 -2.258064 4.104492 -3.861278
4585 230 1 -1.288064 3.960808 -3.829877
4586 230 1 -0.318064 4.071991 -3.827421
4587 230 1 0.651936 4.125006 -3.887306
4588 230 1 1.621936 3.965006 -3.898479
4589 230 1 2.591936 4.094084 -3.837210
4590 230 1 3.561936 4.008868 -3.813611
4591 230 1 4.531936 4.124192 -3.732119
4592 230 1 5.501936 4.126087 -3.894847
4593 230 1 6.471936 4.050053 -3.765896
4594 230 1 7.441936 4.036258 -3.888932
4595 230 1 8.411936 4.104017 -3.839982
4596 230 1 9.381936 4.041772 -3.882330
4597 230 1 10.351936 4.088560 -3.786426
4598 230 1 11.321936 4.064386 -3.751533
4599 230 1 12.291936 4.153737 -3.802277
4600 230 1 13.261936 4.039172 -3.830419
4601 231 1 2.575946 -8.966665 0.735154
4602 231 1 3.545946 -8.841414 0.620631
4603 231 1 4.515946 -8.859253 0.669163
4604 231 1 5.485946 -8.821701 0.679253
4605 231 1 6.455946 -8.907100 0.770012
4606 231 1 7.425946 -8.838825 0.646193
4607 231 1 8.395946 -8.909577 0.753216
4608 231 1 9.365946 -8.874978 0.633185
4609 231 1 10.335946 -8.849928 0.742803
4610 231 1 11.305946 -8.830219 0.778677
4611 231 1 12.275946 -8.883428 0.793916
4612 231 1 13.245946 -8.957006 0.642046
4613 231 1 14.215946 -8.918423 0.738426
4614 231 1 15.185946 -8.870138 0.725055
4615 231 1 16.155946 -8.907453 0.645668
4616 231 1 17.125946 -8.786912 0.726151
4617 231 1 18.095946 -8.902319 0.624382
4618 231 1 19.065946 -8.930886 0.693399
4619 231 1 20.035946 -8.873082 0.626256
4620 231 1 21.005946 -8.884597 0.619547
4621 232 1 8.186168 -4.413727 -2.865725
4622 232 1 9.156168 -4.447563 -2.919713
4623 232 1 10.126168 -4.528286 -2.841247
4624 232 1 11.096168 -4.459669 -2.776231
4625 232 1 12.066168 -4.532528 -2.815353
4626 232 1 13.036168 -4.413492 -2.896904
4627 232 1 14.006168 -4.509661 -2.848735
4628 232 1 14.976168 -4.517058 -2.840205
4629 232 1 15.946168 -4.573380 -2.743339
4630 232 1 16.916168 -4.532709 -2.766115
4631 232 1 17.886168 -4.513674 -2.844585
4632 232 1 18.856168 -4.559541 -2.928533
4633 232 1 19.826168 -4.452276 -2.753482
4634 232 1 20.796168 -4.398467 -2.911163
4635 232 1 21.766168 -4.399493 -2.772351
4636 232 1 22.736168 -4.444395 -2.872699
4637 232 1 23.706168 -4.563453 -2.872865
4638 232 1 24.676168 -4.392696 -2.733766
4639 232 1 25.646168 -4.491679 -2.902487
4640 232 1 26.616168 -4.479592 -2.780689
4641 233 1 -4.531423 3.094559 6.836984
4642 233 1 -3.561423 3.116848 6.927812
4643 233 1 -2.591423 3.125054 6.882277
4644 233 1 -1.621423 2.995924 6.946198
4645 233 1 -0.651423 2.971254 6.805159
4646 233 1 0.318577 3.133312 6.869932
4647 233 1 1.288577 3.137024 6.922923
4648 233 1 2.258577 3.061177 6.800068
4649 233 1 3.228577 3.018425 6.816161
4650 233 1 4.198577 3.141470 6.845383
4651 233 1 5.168577 3.002418 6.894797
4652 233 1 6.138577 2.978051 6.860991
4653 233 1 7.108577 2.958584 6.976366
4654 233 1 8.078577 3.039274 6.872862
4655 233 1 9.048577 3.018973 6.832995
4656 233 1 10.018577 3.146175 6.916680
4657 233 1 10.988577 3.006324 6.832357
4658 233 1 11.958577 3.108009 6.899401
4659 233 1 12.928577 3.049547 6.874026
4660 233 1 13.898577 3.140825 6.889077
4661 234 1 8.837262 8.522615 1.368234
4662 234 1 9.807262 8.554650 1.334835
4663 234 1 10.777262 8.683079 1.346910
4664 234 1 11.747262 8.660103 1.490739
4665 234 1 12.717262 8.517394 1.295010
4666 234 1 13.687262 8.513704 1.344439
4667 234 1 14.657262 8.530511 1.491891
4668 234 1 15.627262 8.586349 1.473556
4669 234 1 16.597262 8.571557 1.329119
4670 234 1 17.567262 8.672633 1.367358
4671 234 1 18.537262 8.580219 1.430319
4672 234 1 19.507262 8.558546 1.294053
4673 234 1 20.477262 8.643002 1.471237
4674 234 1 21.447262 8.675240 1.419157
4675 234 1 22.417262 8.588880 1.467837
4676 234 1 23.387262 8.649666 1.417231
4677 234 1 24.357262 8.675056 1.398961
4678 234 1 25.327262 8.669487 1.415046
4679 234 1 26.297262 8.634499 1.443181
4680 234 1 27.267262 8.555166 1.396496
4681 235 1 2.132514 -0.884815 -6.240299
4682 235 1 3.102514 -0.963773 -6.299786
4683 235 1 4.072514 -0.812378 -6.365975
4684 235 1 5.042514 -0.858803 -6.312047
4685 235 1 6.012514 -0.954720 -6.376839
4686 235 1 6.982514 -0.779007 -6.406262
4687 235 1 7.952514 -0.876602 -6.259224
4688 235 1 8.922514 -0.913514 -6.402000
4689 235 1 9.892514 -0.870661 -6.243122
4690 235 1 10.862514 -0.952281 -6.416389
4691 235 1 11.832514 -0.935440 -6.411207
4692 235 1 12.802514 -0.794804 -6.267079
4693 235 1 13.772514 -0.888054 -6.392524
4694 235 1 14.742514 -0.970942 -6.335599
4695 235 1 15.712514 -0.919330 -6.236560
4696 235 1 16.682514 -0.917799 -6.433674
4697 235 1 17.652514 -0.929982 -6.318548
4698 235 1 18.622514 -0.827630 -6.430816
4699 235 1 19.592514 -0.881013 -6.338534
4700 235 1 20.562514 -0.889370 -6.434529
4701 236 1 9.603997 -6.080208 2.453414
4702 236 1 10.573997 -6.077025 2.472796
4703 236 1 11.543997 -6.161014 2.544545
4704 236 1 12.513997 -6.103762 2.497399
4705 236 1 13.483997 -6.119394 2.480456
4706 236 1 14.453997 -5.988105 2.358655
4707 236 1 15.423997 -6.099671 2.442199
4708 236 1 16.393997 -6.119645 2.543098
4709 236 1 17.363997 -6.078038 2.541318
4710 236 1 18.333997 -6.057141 2.403119
4711 236 1 19.303997 -6.035088 2.535956
4712 236 1 20.273997 -6.065689 2.356644
4713 236 1 21.243997 -6.097667 2.449125
4714 236 1 22.213997 -6.069775 2.440008
4715 236 1 23.183997 -6.102287 2.366347
4716 236 1 24.153997 -6.162741 2.418922
4717 236 1 25.123997 -6.156764 2.441576
4718 236 1 26.093997 -6.130348 2.507759
4719 236 1 27.063997 -6.172875 2.401780
4720 236 1 28.033997 -6.140530 2.525143
4721 237 1 -0.495126 3.906426 7.110107
4722 237 1 0.474874 3.887908 7.224094
4723 237 1 1.444874 3.985406 7.287552
4724 237 1 2.414874 3.909576 7.197665
4725 237 1 3.384874 3.961542 7.288452
4726 237 1 4.354874 3.964248 7.250565
4727 237 1 5.324874 3.973207 7.146731
4728 237 1 6.294874 3.916461 7.287441
4729 237 1 7.264874 3.969171 7.280451
4730 237 1 8.234874 3.931230 7.150193
4731 237 1 9.204874 3.984554 7.122693
4732 237 1 10.174874 3.809165 7.120012
4733 237 1 11.144874 3.950602 7.219694
4734 237 1 12.114874 3.915104 7.117520
4735 237 1 13.084874 3.853194 7.231939
4736 237 1 14.054874 3.953941 7.193887
4737 237 1 15.024874 3.917688 7.104218
4738 237 1 15.994874 3.957967 7.144757
4739 237 1 16.964874 3.889217 7.270205
4740 237 1 17.934874 3.987843 7.120130
4741 238 1 7.746793 8.400784 4.170167
4742 238 1 8.716793 8.381509 4.151811
4743 238 1 9.686793 8.333302 4.142342
4744 238 1 10.656793 8.303433 4.148137
4745 238 1 11.626793 8.346119 4.212598
4746 238 1 12.596793 8.388077 4.209268
4747 238 1 13.566793 8.375772 4.151451
4748 238 1 14.536793 8.390503 4.162513
4749 238 1 15.506793 8.438449 4.121930
4750 238 1 16.476793 8.402471 4.110090
4751 238 1 17.446793 8.353854 4.047609
4752 238 1 18.416793 8.324778 4.142875
4753 238 1 19.386793 8.300126 4.185479
4754 238 1 20.356793 8.355537 4.222328
4755 238 1 21.326793 8.453495 4.138830
4756 238 1 22.296793 8.329733 4.188460
4757 238 1 23.266793 8.436225 4.041643
4758 238 1 24.236793 8.360810 4.152259
4759 238 1 25.206793 8.366044 4.226480
4760 238 1 26.176793 8.382128 4.071157
4761 239 1 -1.123501 7.985526 -6.222413
4762 239 1 -0.153501 8.070105 -6.188214
4763 239 1 0.816499 8.147754 -6.211406
4764 239 1 1.786499 8.110809 -6.091304
4765 239 1 2.756499 8.000481 -6.189542
4766 239 1 3.726499 8.135216 -6.166648
4767 239 1 4.696499 8.139557 -6.117308
4768 239 1 5.666499 8.008460 -6.131579
4769 239 1 6.636499 8.111438 -6.101351
4770 239 1 7.606499 8.159247 -6.056637
4771 239 1 8.576499 8.110625 -6.184991
4772 239 1 9.546499 8.055096 -6.157938
4773 239 1 10.516499 8.057810 -6.165067
4774 239 1 11.486499 8.054152 -6.154130
4775 239 1 12.456499 7.978476 -6.177467
4776 239 1 13.426499 7.977324 -6.127505
4777 239 1 14.396499 8.144436 -6.147448
4778 239 1 15.366499 8.033179 -6.167325
4779 239 1 16.336499 8.035040 -6.050062
4780 239 1 17.306499 7.976431 -6.184031
4781 240 1 -7.804812 0.008763 4.530182
4782 240 1 -6.834812 0.024537 4.478199
4783 240 1 -5.864812 0.009891 4.515155
4784 240 1 -4.894812 -0.015994 4.595697
4785 240 1 -3.924812 0.117476 4.490858
4786 240 1 -2.954812 0.068163 4.509888
4787 240 1 -1.984812 0.092406 4.585865
4788 240 1 -1.014812 0.087591 4.450577
4789 240 1 -0.044812 0.097618 4.539196
4790 240 1 0.925188 0.122245 4.412939
4791 240 1 1.895188 0.052169 4.554446
4792 240 1 2.865188 -0.030158 4.563252
4793 240 1 3.835188 0.007007 4.548465
4794 240 1 4.805188 0.142818 4.567038
4795 240 1 5.775188 -0.015196 4.580474
4796 240 1 6.745188 0.111165 4.539024
4797 240 1 7.715188 -0.032361 4.607747
4798 240 1 8.685188 0.116929 4.553732
4799 240 1 9.655188 0.068033 4.559642
4800 240 1 10.625188 0.106929 4.463283
4801 241 1 -7.601498 -7.013341 3.296449
4802 241 1 -6.631498 -7.042722 3.129227
4803 241 1 -5.661498 -7.122424 3.279668
4804 241 1 -4.691498 -7.013591 3.184796
4805 241 1 -3.721498 -7.073156 3.131298
4806 241 1 -2.751498 -7.103113 3.235558
4807 241 1 -1.781498 -7.036260 3.235769
4808 241 1 -0.811498 -7.084591 3.283757
4809 241 1 0.158502 -6.994511 3.200472
4810 241 1 1.128502 -7.133075 3.265175
4811 241 1 2.098502 -6.975611 3.217385
4812 241 1 3.068502 -7.160430 3.168491
4813 241 1 4.038502 -6.998039 3.148716
4814 241 1 5.008502 -6.978355 3.182433
4815 241 1 5.978502 -7.123499 3.291129
4816 241 1 6.948502 -7.129513 3.185788
4817 241 1 7.918502 -7.056488 3.120677
4818 241 1 8.888502 -7.089357 3.256696
4819 241 1 9.858502 -7.156351 3.254146
4820 241 1 10.828502 -7.079539 3.258613
4821 242 1 -8.165086 -6.367182 1.410240
4822 242 1 -7.195086 -6.255291 1.341962
4823 242 1 -6.225086 -6.255681 1.481665
4824 242 1 -5.255086 -6.277448 1.376718
4825 242 1 -4.285086 -6.236738 1.529829
4826 242 1 -3.315086 -6.182081 1.477927
4827 242 1 -2.345086 -6.210861 1.474772
4828 242 1 -1.375086 -6.191919 1.435919
4829 242 1 -0.405086 -6.314423 1.535987
4830 242 1 0.564914 -6.252193 1.504935
4831 242 1 1.534914 -6.201786 1.516503
4832 242 1 2.504914 -6.226122 1.468599
4833 242 1 3.474914 -6.210694 1.463568
4834 242 1 4.444914 -6.202569 1.423199
4835 242 1 5.414914 -6.319240 1.431631
4836 242 1 6.384914 -6.324906 1.482233
4837 242 1 7.354914 -6.369679 1.454005
4838 242 1 8.324914 -6.241534 1.361321
4839 242 1 9.294914 -6.182923 1.489900
4840 242 1 10.264914 -6.260647 1.443549
4841 243 1 7.114438 -9.021360 8.606537
4842 243 1 8.084438 -9.054099 8.685397
4843 243 1 9.054438 -9.009959 8.772282
4844 243 1 10.024438 -9.091376 8.726873
4845 243 1 10.994438 -9.065016 8.591061
4846 243 1 11.964438 -9.014416 8.660404
4847 243 1 12.934438 -9.085213 8.662290
4848 243 1 13.904438 -9.015139 8.588604
4849 243 1 14.874438 -9.150883 8.606225
4850 243 1 15.844438 -9.068680 8.615957
4851 243 1 16.814438 -9.022561 8.646942
4852 243 1 17.784438 -9.100920 8.660284
4853 243 1 18.754438 -9.169625 8.639635
4854 243 1 19.724438 -9.182030 8.781696
4855 243 1 20.694438 -9.185829 8.724144
4856 243 1 21.664438 -9.064067 8.728803
4857 243 1 22.634438 -9.019035 8.773290
4858 243 1 23.604438 -9.048301 8.630425
4859 243 1 24.574438 -9.138355 8.782712
4860 243 1 25.544438 -9.140040 8.621180
4861 244 1 -2.867702 6.061577 5.726143
4862 244 1 -1.897702 6.091268 5.664883
4863 244 1 -0.927702 6.175903 5.613473
4864 244 1 0.042298 5.982004 5.673242
4865 244 1 1.012298 6.167499 5.675276
4866 244 1 1.982298 6.129916 5.639751
4867 244 1 2.952298 6.129163 5.718603
4868 244 1 3.922298 6.044073 5.706611
4869 244 1 4.892298 6.148288 5.601586
4870 244 1 5.862298 6.150449 5.734900
4871 244 1 6.832298 6.066487 5.560008
4872 244 1 7.802298 5.980446 5.628446
4873 244 1 8.772298 6.108605 5.589951
4874 244 1 9.742298 6.098037 5.548091
4875 244 1 10.712298 6.046919 5.661491
4876 244 1 11.682298 6.011774 5.640827
4877 244 1 12.652298 6.091487 5.718316
4878 244 1 13.622298 6.059203 5.593853
4879 244 1 14.592298 6.072922 5.555119
4880 244 1 15.562298 6.056724 5.707070
4881 245 1 -8.720245 3.460161 -5.888452
4882 245 1 -7.750245 3.401271 -5.935674
4883 245 1 -6.780245 3.493889 -5.877011
4884 245 1 -5.810245 3.432400 -6.008929
4885 245 1 -4.840245 3.558493 -6.014651
4886 245 1 -3.870245 3.480121 -5.866911
4887 245 1 -2.900245 3.392881 -5.894695
4888 245 1 -1.930245 3.502347 -5.856060
4889 245 1 -0.960245 3.455964 -6.016961
4890 245 1 0.009755 3.499852 -6.048535
4891 245 1 0.979755 3.515027 -5.918358
4892 245 1 1.949755 3.499725 -5.912579
4893 245 1 2.919755 3.434919 -5.899211
4894 245 1 3.889755 3.428245 -5.869507
4895 245 1 4.859755 3.583288 -5.881036
4896 245 1 5.829755 3.399681 -6.004598
4897 245 1 6.799755 3.515426 -5.933403
4898 245 1 7.769755 3.558327 -5.898584
4899 245 1 8.739755 3.570383 -5.992334
4900 245 1 9.709755 3.417858 -5.884419
4901 246 1 3.769342 3.986114 -4.198100
4902 246 1 4.739342 3.939792 -4.148903
4903 246 1 5.709342 4.079430 -4.203190
4904 246 1 6.679342 3.972328 -4.131335
4905 246 1 7.649342 4.069781 -4.195308
4906 246 1 8.619342 3.967081 -4.191321
4907 246 1 9.589342 4.088589 -4.196675
4908 246 1 10.559342 4.043291 -4.166133
4909 246 1 11.529342 4.006761 -4.158313
4910 246 1 12.499342 3.990000 -4.237008
4911 246 1 13.469342 3.951940 -4.148299
4912 246 1 14.439342 4.128246 -4.109905
4913 246 1 15.409342 3.981789 -4.123857
4914 246 1 16.379342 4.073155 -4.244461
4915 246 1 17.349342 3.962010 -4.115840
4916 246 1 18.319342 4.067840 -4.162614
4917 246 1 19.289342 3.980184 -4.252132
4918 246 1 20.259342 4.003036 -4.176913
4919 246 1 21.229342 4.119385 -4.107866
4920 246 1 22.199342 4.061364 -4.174902
4921 247 1 -3.597209 7.813278 -7.008983
4922 247 1 -2.627209 7.722205 -7.134497
4923 247 1 -1.657209 7.850981 -7.011069
4924 247 1 -0.687209 7.720738 -7.030505
4925 247 1 0.282791 7.760447 -6.970700
4926 247 1 1.252791 7.805497 -6.951817
4927 247 1 2.222791 7.830932 -7.010235
4928 247 1 3.192791 7.775971 -7.007513
4929 247 1 4.162791 7.792300 -7.017825
4930 247 1 5.132791 7.723174 -7.143423
4931 247 1 6.102791 7.855958 -7.141449
4932 247 1 7.072791 7.803102 -7.038157
4933 247 1 8.042791 7.733065 -7.100558
4934 247 1 9.012791 7.822151 -6.973578
4935 247 1 9.982791 7.698593 -6.958174
4936 247 1 10.952791 7.703685 -6.952093
4937 247 1 11.922791 7.837020 -6.985837
4938 247 1 12.892791 7.742085 -7.080081
4939 247 1 13.862791 7.779828 -7.000049
4940 247 1 14.832791 7.720657 -7.055355
4941 248 1 -1.107129 1.757394 2.757862
4942 248 1 -0.137129 1.644400 2.739819
4943 248 1 0.832871 1.780141 2.805289
4944 248 1 1.802871 1.739412 2.769270
4945 248 1 2.772871 1.755819 2.661243
4946 248 1 3.742871 1.749178 2.750889
4947 248 1 4.712871 1.661928 2.681683
4948 248 1 5.682871 1.748406 2.739593
4949 248 1 6.652871 1.686135 2.797234
4950 248 1 7.622871 1.647303 2.701695
4951 248 1 8.592871 1.687498 2.671917
4952 248 1 9.562871 1.647140 2.696422
4953 248 1 10.532871 1.694949 2.645314
4954 248 1 11.502871 1.600387 2.623789
4955 248 1 12.472871 1.697078 2.694508
4956 248 1 13.442871 1.784427 2.735426
4957 248 1 14.412871 1.737649 2.710239
4958 248 1 15.382871 1.770979 2.773613
4959 248 1 16.352871 1.651757 2.735512
4960 248 1 17.322871 1.664953 2.785529
4961 249 1 5.100515 7.679924 2.934439
4962 249 1 6.070515 7.683694 2.879910
4963 249 1 7.040515 7.824574 2.938992
4964 249 1 8.010515 7.714998 2.818554
4965 249 1 8.980515 7.826231 2.924247
4966 249 1 9.950515 7.725747 2.822950
4967 249 1 10.920515 7.855113 2.855128
4968 249 1 11.890515 7.861334 2.885731
4969 249 1 12.860515 7.745863 2.904093
4970 249 1 13.830515 7.781194 2.993682
4971 249 1 14.800515 7.838994 2.905277
4972 249 1 15.770515 7.832685 2.853214
4973 249 1 16.740515 7.770135 2.977805
4974 249 1 17.710515 7.705560 2.968751
4975 249 1 18.680515 7.816659 2.900535
4976 249 1 19.650515 7.829233 2.860519
4977 249 1 20.620515 7.805870 3.003649
4978 249 1 21.590515 7.727731 2.967745
4979 249 1 22.560515 7.792272 2.961576
4980 249 1 23.530515 7.739744 2.978134
4981 250 1 -7.306025 3.192137 5.670292
4982 250 1 -6.336025 3.269403 5.796206
4983 250 1 -5.366025 3.231924 5.651428
4984 250 1 -4.396025 3.232227 5.833425
4985 250 1 -3.426025 3.187319 5.795751
4986 250 1 -2.456025 3.217148 5.792700
4987 250 1 -1.486025 3.240103 5.727108
4988 250 1 -0.516025 3.343812 5.800759
4989 250 1 0.453975 3.343586 5.727303
4990 250 1 1.423975 3.298888 5.827438
4991 250 1 2.393975 3.286379 5.648569
4992 250 1 3.363975 3.304747 5.720571
4993 250 1 4.333975 3.214164 5.788979
4994 250 1 5.303975 3.254099 5.713409
4995 250 1 6.273975 3.228961 5.789928
4996 250 1 7.243975 3.363251 5.719418
4997 250 1 8.213975 3.305648 5.812916
4998 250 1 9.183975 3.286491 5.832819
4999 250 1 10.153975 3.354776 5.680088
5000 250 1 11.123975 3.259924 5.666418
5001 251 1 3.928793 6.279825 -4.156756
5002 251 1 4.898793 6.179753 -4.310364
5003 251 1 5.868793 6.192338 -4.193067
5004 251 1 6.838793 6.181017 -4.167948
5005 251 1 7.808793 6.192986 -4.304251
5006 251 1 8.778793 6.220460 -4.282200
5007 251 1 9.748793 6.343944 -4.215468
5008 251 1 10.718793 6.296520 -4.181347
5009 251 1 11.688793 6.372623 -4.159424
5010 251 1 12.658793 6.201123 -4.240214
5011 251 1 13.628793 6.220202 -4.131227
5012 251 1 14.598793 6.291103 -4.280961
5013 251 1 15.568793 6.291545 -4.298039
5014 251 1 16.538793 6.303129 -4.154357
5015 251 1 17.508793 6.262425 -4.126924
5016 251 1 18.478793 6.230462 -4.235779
5017 251 1 19.448793 6.326600 -4.136224
5018 251 1 20.418793 6.341643 -4.181411
5019 251 1 21.388793 6.253404 -4.279888
5020 251 1 22.358793 6.352533 -4.304255
5021 252 1 1.960342 -6.927180 8.824349
5022 252 1 2.930342 -6.922193 8.793787
5023 252 1 3.900342 -6.969982 8.871171
5024 252 1 4.870342 -6.813678 8.824483
5025 252 1 5.840342 -6.832081 8.898358
5026 252 1 6.810342 -6.856687 8.830067
5027 252 1 7.780342 -6.828194 8.762980
5028 252 1 8.750342 -6.864826 8.850017
5029 252 1 9.720342 -6.818925 8.863925
5030 252 1 10.690342 -6.933219 8.922134
5031 252 1 11.660342 -6.971351 8.745581
5032 252 1 12.630342 -6.879293 8.897172
5033 252 1 13.600342 -6.786945 8.813291
5034 252 1 14.570342 -6.863356 8.822099
5035 252 1 15.540342 -6.813433 8.752168
5036 252 1 16.510342 -6.964550 8.932771
5037 252 1 17.480342 -6.868036 8.758604
5038 252 1 18.450342 -6.932861 8.810748
5039 252 1 19.420342 -6.964541 8.914795
5040 252 1 20.390342 -6.849420 8.849398
5041 253 1 6.618807 -5.943096 7.214252
5042 253 1 7.588807 -5.815244 7.195994
5043 253 1 8.558807 -5.769719 7.214624
5044 253 1 9.528807 -5.834373 7.253897
5045 253 1 10.498807 -5.880954 7.157745
5046 253 1 11.468807 -5.775867 7.303800
5047 253 1 12.438807 -5.795225 7.236194
5048 253 1 13.408807 -5.872584 7.155807
5049 253 1 14.378807 -5.954115 7.233322
5050 253 1 15.348807 -5.769256 7.157014
5051 253 1 16.318807 -5.773212 7.152078
5052 253 1 17.288807 -5.849952 7.157008
5053 253 1 18.258807 -5.917893 7.145114
5054 253 1 19.228807 -5.930748 7.148198
5055 253 1 20.198807 -5.943007 7.212862
5056 253 1 21.168807 -5.797164 7.315124
5057 253 1 22.138807 -5.911360 7.171712
5058 253 1 23.108807 -5.822876 7.228910
5059 253 1 24.078807 -5.916005 7.269778
5060 253 1 25.048807 -5.802327 7.305360
5061 254 1 -9.395429 1.031179 -4.894441
5062 254 1 -8.425429 1.073626 -4.981104
5063 254 1 -7.455429 1.058559 -4.972440
5064 254 1 -6.485429 1.036092 -4.952826
5065 254 1 -5.515429 0.992002 -4.889432
5066 254 1 -4.545429 1.170060 -4.954200
5067 254 1 -3.575429 1.097531 -4.928779
5068 254 1 -2.605429 1.130415 -4.960725
5069 254 1 -1.635429 1.174664 -4.986010
5070 254 1 -0.665429 0.999607 -4.810782
5071 254 1 0.304571 1.122336 -4.906661
5072 254 1 1.274571 1.135330 -4.818008
5073 254 1 2.244571 1.087279 -4.791334
5074 254 1 3.214571 1.157286 -4.877770
5075 254 1 4.184571 1.165991 -4.933282
5076 254 1 5.154571 1.149853 -4.937505
5077 254 1 6.124571 1.096463 -4.848898
5078 254 1 7.094571 1.109732 -4.802928
5079 254 1 8.064571 1.143588 -4.858617
5080 254 1 9.034571 1.113591 -4.909993
5081 255 1 -5.211762 -4.275390 -3.195125
5082 255 1 -4.241762 -4.381984 -3.140177
5083 255 1 -3.271762 -4.398332 -3.168631
5084 255 1 -2.301762 -4.401723 -3.133588
5085 255 1 -1.331762 -4.369616 -3.248854
5086 255 1 -0.361762 -4.359971 -3.155110
5087 255 1 0.608238 -4.228196 -3.290221
5088 255 1 1.578238 -4.363597 -3.140748
5089 255 1 2.548238 -4.234926 -3.123961
5090 255 1 3.518238 -4.396795 -3.135426
5091 255 1 4.488238 -4.236805 -3.223563
5092 255 1 5.458238 -4.239977 -3.217982
5093 255 1 6.428238 -4.339816 -3.160847
5094 255 1 7.398238 -4.242972 -3.127531
5095 255 1 8.368238 -4.240914 -3.101087
5096 255 1 9.338238 -4.353260 -3.275547
5097 255 1 10.308238 -4.284888 -3.098855
5098 255 1 11.278238 -4.319938 -3.256402
5099 255 1 12.248238 -4.392776 -3.107046
5100 255 1 13.218238 -4.299615 -3.152627
5101 256 1 0.146052 6.516724 -6.200517
5102 256 1 1.116052 6.474557 -6.155015
5103 256 1 2.086052 6.467979 -6.077518
5104 256 1 3.056052 6.444409 -6.111834
5105 256 1 4.026052 6.332372 -6.121778
5106 256 1 4.996052 6.468436 -6.200707
5107 256 1 5.966052 6.324110 -6.039332
5108 256 1 6.936052 6.375044 -6.043049
5109 256 1 7.906052 6.324565 -6.114208
5110 256 1 8.876052 6.439493 -6.059163
5111 256 1 9.846052 6.377966 -6.160964
5112 256 1 10.816052 6.508355 -6.156081
5113 256 1 11.786052 6.371290 -6.065753
5114 256 1 12.756052 6.483932 -6.187510
5115 256 1 13.726052 6.463334 -6.135143
5116 256 1 14.696052 6.399359 -6.016255
5117 256 1 15.666052 6.369433 -6.124269
5118 256 1 16.636052 6.333924 -6.176943
5119 256 1 17.606052 6.379157 -6.022272
5120 256 1 18.576052 6.439899 -6.066477
5121 257 1 -5.617827 -5.898249 -8.908462
5122 257 1 -4.647827 -6.010547 -8.876473
5123 257 1 -3.677827 -6.027568 -8.965192
5124 257 1 -2.707827 -6.044663 -8.989577
5125 257 1 -1.737827 -6.031093 -8.807647
5126 257 1 -0.767827 -5.971970 -8.987743
5127 257 1 0.202173 -5.928043 -8.969656
5128 257 1 1.172173 -6.003678 -9.007089
5129 257 1 2.142173 -5.858813 -8.988219
5130 257 1 3.112173 -6.011792 -8.900174
5131 257 1 4.082173 -6.024926 -8.828651
5132 257 1 5.052173 -5.920840 -8.860884
5133 257 1 6.022173 -6.009806 -8.843025
5134 257 1 6.992173 -5.925156 -9.005438
5135 257 1 7.962173 -5.859734 -8.845002
5136 257 1 8.932173 -5.860284 -8.900251
5137 257 1 9.902173 -6.030121 -8.845484
5138 257 1 10.872173 -6.001288 -8.810830
5139 257 1 11.842173 -5.881178 -8.872923
5140 257 1 12.812173 -5.887336 -8.872422
5141 258 1 -8.118985 -4.866917 7.683188
5142 258 1 -7.148985 -4.835835 7.666690
5143 258 1 -6.178985 -4.962650 7.774815
5144 258 1 -5.208985 -4.909140 7.654682
5145 258 1 -4.238985 -4.795413 7.669892
5146 258 1 -3.268985 -4.872352 7.664819
5147 258 1 -2.298985 -4.808041 7.791115
5148 258 1 -1.328985 -4.961169 7.652560
5149 258 1 -0.358985 -4.917480 7.757329
5150 258 1 0.611015 -4.961711 7.692832
5151 258 1 1.581015 -4.870619 7.662681
5152 258 1 2.551015 -4.893185 7.678859
5153 258 1 3.521015 -4.955265 7.636563
5154 258 1 4.491015 -4.934915 7.695478
5155 258 1 5.461015 -4.975469 7.745951
5156 258 1 6.431015 -4.907786 7.822024
5157 258 1 7.401015 -4.845165 7.735124
5158 258 1 8.371015 -4.805713 7.823597
5159 258 1 9.341015 -4.942794 7.727309
5160 258 1 10.311015 -4.849508 7.683539
5161 259 1 1.680294 -7.702238 0.292470
5162 259 1 2.650294 -7.669411 0.414685
5163 259 1 3.620294 -7.770357 0.416664
5164 259 1 4.590294 -7.724390 0.399039
5165 259 1 5.560294 -7.801331 0.343570
5166 259 1 6.530294 -7.762755 0.270878
5167 259 1 7.500294 -7.793382 0.271556
5168 259 1 8.470294 -7.763272 0.270234
5169 259 1 9.440294 -7.815883 0.335649
5170 259 1 10.410294 -7.833642 0.280014
5171 259 1 11.380294 -7.766309 0.395354
5172 259 1 12.350294 -7.821950 0.253967
5173 259 1 13.320294 -7.832521 0.387478
5174 259 1 14.290294 -7.833035 0.290936
5175 259 1 15.260294 -7.834627 0.367046
5176 259 1 16.230294 -7.805181 0.330537
5177 259 1 17.200294 -7.683989 0.423374
5178 259 1 18.170294 -7.821821 0.376106
5179 259 1 19.140294 -7.726198 0.251784
5180 259 1 20.110294 -7.678480 0.251023
5181 260 1 -6.621110 -8.493509 -6.817469
5182 260 1 -5.651110 -8.343194 -6.898383
5183 260 1 -4.681110 -8.504923 -6.783592
5184 260 1 -3.711110 -8.344206 -6.853026
5185 260 1 -2.741110 -8.502839 -6.796411
5186 260 1 -1.771110 -8.435899 -6.812309
5187 260 1 -0.801110 -8.370515 -6.886534
5188 260 1 0.168890 -8.407767 -6.957275
5189 260 1 1.138890 -8.463769 -6.840757
5190 260 1 2.108890 -8.322434 -6.854068
5191 260 1 3.078890 -8.335162 -6.924030
5192 260 1 4.048890 -8.491755 -6.794749
5193 260 1 5.018890 -8.475161 -6.857450
5194 260 1 5.988890 -8.342231 -6.894330
5195 260 1 6.958890 -8.361028 -6.846805
5196 260 1 7.928890 -8.347896 -6.875541
5197 260 1 8.898890 -8.367211 -6.810564
5198 260 1 9.868890 -8.358816 -6.920264
5199 260 1 10.838890 -8.328271 -6.819839
5200 260 1 11.808890 -8.463026 -6.876505
5201 261 1 9.225276 -3.226224 4.815142
5202 261 1 10.195276 -3.206621 4.863037
5203 261 1 11.165276 -3.111968 4.714094
5204 261 1 12.135276 -3.076671 4.727771
5205 261 1 13.105276 -3.124022 4.738945
5206 261 1 14.075276 -3.165297 4.715032
5207 261 1 15.045276 -3.038626 4.880524
5208 261 1 16.015276 -3.156272 4.855885
5209 261 1 16.985276 -3.169785 4.779628
5210 261 1 17.955276 -3.186593 4.857866
5211 261 1 18.925276 -3.038776 4.837281
5212 261 1 19.895276 -3.093466 4.842175
5213 261 1 20.865276 -3.232737 4.704105
5214 261 1 21.835276 -3.203591 4.747143
5215 261 1 22.805276 -3.038066 4.725736
5216 261 1 23.775276 -3.108240 4.690168
5217 261 1 24.745276 -3.073373 4.733795
5218 261 1 25.715276 -3.234985 4.791628
5219 261 1 26.685276 -3.156410 4.859258
5220 261 1 27.655276 -3.081990 4.779176
5221 262 1 -6.809530 5.233247 1.945307
5222 262 1 -5.839530 5.230630 2.042302
5223 262 1 -4.869530 5.364606 2.031621
5224 262 1 -3.899530 5.220478 1.982695
5225 262 1 -2.929530 5.364580 2.022721
5226 262 1 -1.959530 5.236112 1.922765
5227 262 1 -0.989530 5.266413 1.969337
5228 262 1 -0.019530 5.303284 1.917631
5229 262 1 0.950470 5.280403 1.984747
5230 262 1 1.920470 5.337549 1.974376
5231 262 1 2.890470 5.285440 1.951413
5232 262 1 3.860470 5.340646 2.044038
5233 262 1 4.830470 5.338858 2.035027
5234 262 1 5.800470 5.305754 2.074364
5235 262 1 6.770470 5.250100 2.099127
5236 262 1 7.740470 5.284919 1.908715
5237 262 1 8.710470 5.379327 2.098189
5238 262 1 9.680470 5.190627 2.011951
5239 262 1 10.650470 5.191836 2.019930
5240 262 1 11.620470 5.228273 1.912835
5241 263 1 -9.183819 -0.898864 -4.526634
5242 263 1 -8.213819 -0.814008 -4.610883
5243 263 1 -7.243819 -0.889598 -4.661394
5244 263 1 -6.273819 -0.935343 -4.636190
5245 263 1 -5.303819 -0.947384 -4.676210
5246 263 1 -4.333819 -0.807748 -4.610200
5247 263 1 -3.363819 -0.796876 -4.631504
5248 263 1 -2.393819 -0.913409 -4.512369
5249 263 1 -1.423819 -0.928052 -4.493372
5250 263 1 -0.453819 -0.969723 -4.563102
5251 263 1 0.516181 -0.878215 -4.682000
5252 263 1 1.486181 -0.836701 -4.553468
5253 263 1 2.456181 -0.942437 -4.495219
5254 263 1 3.426181 -0.909379 -4.555357
5255 263 1 4.396181 -0.795388 -4.610951
5256 263 1 5.366181 -0.926232 -4.496730
5257 263 1 6.336181 -0.816956 -4.579201
5258 263 1 7.306181 -0.981504 -4.678962
5259 263 1 8.276181 -0.960459 -4.517128
5260 263 1 9.246181 -0.800087 -4.644219
5261 264 1 9.115992 -7.127935 1.868942
5262 264 1 10.085992 -7.267891 1.872037
5263 264 1 11.055992 -7.227572 1.970492
5264 264 1 12.025992 -7.113342 1.915984
5265 264 1 12.995992 -7.282296 1.983481
5266 264 1 13.965992 -7.179486 1.838152
5267 264 1 14.935992 -7.131894 1.878276
5268 264 1 15.905992 -7.194282 1.992831
5269 264 1 16.875992 -7.224032 1.861002
5270 264 1 17.845992 -7.121059 1.980336
5271 264 1 18.815992 -7.208867 1.857300
5272 264 1 19.785992 -7.235079 1.862073
5273 264 1 20.755992 -7.181825 1.886804
5274 264 1 21.725992 -7.234367 1.873690
5275 264 1 22.695992 -7.272395 1.825824
5276 264 1 23.665992 -7.182991 1.846465
5277 264 1 24.635992 -7.223260 1.845189
5278 264 1 25.605992 -7.229233 1.874319
5279 264 1 26.575992 -7.092764 1.824853
5280 264 1 27.545992 -7.148009 1.902947
5281 265 1 -5.263785 -4.414644 6.620878
5282 265 1 -4.293785 -4.547591 6.566983
5283 265 1 -3.323785 -4.381894 6.627984
5284 265 1 -2.353785 -4.431102 6.733794
5285 265 1 -1.383785 -4.413388 6.695357
5286 265 1 -0.413785 -4.462386 6.596975
5287 265 1 0.556215 -4.446304 6.595358
5288 265 1 1.526215 -4.494728 6.731577
5289 265 1 2.496215 -4.452767 6.751036
5290 265 1 3.466215 -4.402959 6.710687
5291 265 1 4.436215 -4.536972 6.593898
5292 265 1 5.406215 -4.400086 6.607013
5293 265 1 6.376215 -4.383681 6.612166
5294 265 1 7.346215 -4.414392 6.567154
5295 265 1 8.316215 -4.371404 6.578754
5296 265 1 9.286215 -4.420773 6.702032
5297 265 1 10.256215 -4.461981 6.740652
5298 265 1 11.226215 -4.492735 6.754872
5299 265 1 12.196215 -4.460363 6.578951
5300 265 1 13.166215 -4.485093 6.736008
5301 266 1 0.065239 -6.707942 -7.740714
5302 266 1 1.035239 -6.733034 -7.662141
5303 266 1 2.005239 -6.745313 -7.796545
5304 266 1 2.975239 -6.772821 -7.634413
5305 266 1 3.945239 -6.739920 -7.777532
5306 266 1 4.915239 -6.678714 -7.744829
5307 266 1 5.885239 -6.662489 -7.637567
5308 266 1 6.855239 -6.661224 -7.678443
5309 266 1 7.825239 -6.702692 -7.755088
5310 266 1 8.795239 -6.748931 -7.636984
5311 266 1 9.765239 -6.707471 -7.641246
5312 266 1 10.735239 -6.770195 -7.614407
5313 266 1 11.705239 -6.666217 -7.724257
5314 266 1 12.675239 -6.720598 -7.630886
5315 266 1 13.645239 -6.758218 -7.789409
5316 266 1 14.615239 -6.703641 -7.620762
5317 266 1 15.585239 -6.647672 -7.723733
5318 266 1 16.555239 -6.747411 -7.762824
5319 266 1 17.525239 -6.742191 -7.726702
5320 266 1 18.495239 -6.745637 -7.767651
5321 267 1 -8.795416 -8.563422 -5.276269
5322 267 1 -7.825416 -8.649875 -5.138251
5323 267 1 -6.855416 -8.699936 -5.138743
5324 267 1 -5.885416 -8.680057 -5.208978
5325 267 1 -4.915416 -8.638573 -5.224334
5326 267 1 -3.945416 -8.669232 -5.135376
5327 267 1 -2.975416 -8.563195 -5.107895
5328 267 1 -2.005416 -8.684506 -5.175427
5329 267 1 -1.035416 -8.689291 -5.218334
5330 267 1 -0.065416 -8.673098 -5.222359
5331 267 1 0.904584 -8.628074 -5.194806
5332 267 1 1.874584 -8.535004 -5.197602
5333 267 1 2.844584 -8.696312 -5.140110
5334 267 1 3.814584 -8.578007 -5.120677
5335 267 1 4.784584 -8.654171 -5.194882
5336 267 1 5.754584 -8.617433 -5.083767
5337 267 1 6.724584 -8.558635 -5.155185
5338 267 1 7.694584 -8.557198 -5.147470
5339 267 1 8.664584 -8.650074 -5.139217
5340 267 1 9.634584 -8.537940 -5.105498
5341 268 1 3.397774 -8.650810 4.922609
5342 268 1 4.367774 -8.748809 4.795667
5343 268 1 5.337774 -8.725408 4.865800
5344 268 1 6.307774 -8.635241 4.958523
5345 268 1 7.277774 -8.673825 4.912122
5346 268 1 8.247774 -8.626395 4.940244
5347 268 1 9.217774 -8.720942 4.902634
5348 268 1 10.187774 -8.704906 4.801046
5349 268 1 11.157774 -8.654649 4.827152
5350 268 1 12.127774 -8.764931 4.911280
5351 268 1 13.097774 -8.772216 4.953511
5352 268 1 14.067774 -8.781668 4.961953
5353 268 1 15.037774 -8.707023 4.890070
5354 268 1 16.007774 -8.697200 4.962631
5355 268 1 16.977774 -8.629686 4.823545
5356 268 1 17.947774 -8.608198 4.970250
5357 268 1 18.917774 -8.643811 4.912492
5358 268 1 19.887774 -8.762603 4.853246
5359 268 1 20.857774 -8.770068 4.826689
5360 268 1 21.827774 -8.659704 4.864288
5361 269 1 -8.297956 -3.226886 -4.633290
5362 269 1 -7.327956 -3.222543 -4.666999
5363 269 1 -6.357956 -3.240425 -4.633211
5364 269 1 -5.387956 -3.196630 -4.556619
5365 269 1 -4.417956 -3.230090 -4.705048
5366 269 1 -3.447956 -3.226413 -4.751955
5367 269 1 -2.477956 -3.287727 -4.656474
5368 269 1 -1.507956 -3.191323 -4.728388
5369 269 1 -0.537956 -3.299075 -4.639405
5370 269 1 0.432044 -3.327191 -4.739908
5371 269 1 1.402044 -3.145232 -4.706834
5372 269 1 2.372044 -3.178480 -4.603241
5373 269 1 3.342044 -3.141291 -4.741418
5374 269 1 4.312044 -3.261347 -4.608643
5375 269 1 5.282044 -3.195525 -4.661093
5376 269 1 6.252044 -3.149875 -4.585904
5377 269 1 7.222044 -3.133448 -4.691051
5378 269 1 8.192044 -3.182505 -4.616475
5379 269 1 9.162044 -3.308240 -4.675680
5380 269 1 10.132044 -3.328300 -4.706091
5381 270 1 4.436934 -2.620629 1.378631
5382 270 1 5.406934 -2.547068 1.376692
5383 270 1 6.376934 -2.556230 1.387082
5384 270 1 7.346934 -2.542987 1.443498
5385 270 1 8.316934 -2.446065 1.350398
5386 270 1 9.286934 -2.502268 1.486886
5387 270 1 10.256934 -2.436591 1.379207
5388 270 1 11.226934 -2.473509 1.401248
5389 270 1 12.196934 -2.631529 1.412123
5390 270 1 13.166934 -2.434368 1.442093
5391 270 1 14.136934 -2.508082 1.331052
5392 270 1 15.106934 -2.446200 1.350026
5393 270 1 16.076934 -2.462066 1.474669
5394 270 1 17.046934 -2.468410 1.385357
5395 270 1 18.016934 -2.440130 1.391841
5396 270 1 18.986934 -2.532205 1.336702
5397 270 1 19.956934 -2.598244 1.358515
5398 270 1 20.926934 -2.512000 1.329766
5399 270 1 21.896934 -2.566357 1.409292
5400 270 1 22.866934 -2.626725 1.373871
5401 271 1 2.738764 -6.194638 0.130111
5402 271 1 3.708764 -6.208729 0.164703
5403 271 1 4.678764 -6.251368 0.210341
5404 271 1 5.648764 -6.252280 0.234015
5405 271 1 6.618764 -6.239375 0.131107
5406 271 1 7.588764 -6.193796 0.240315
5407 271 1 8.558764 -6.209591 0.270804
5408 271 1 9.528764 -6.126020 0.238416
5409 271 1 10.498764 -6.255899 0.232227
5410 271 1 11.468764 -6.156667 0.184813
5411 271 1 12.438764 -6.172534 0.095407
5412 271 1 13.408764 -6.231897 0.124154
5413 271 1 14.378764 -6.261976 0.228766
5414 271 1 15.348764 -6.154032 0.234370
5415 271 1 16.318764 -6.203892 0.260515
5416 271 1 17.288764 -6.220233 0.235752
5417 271 1 18.258764 -6.308707 0.086674
5418 271 1 19.228764 -6.257732 0.236421
5419 271 1 20.198764 -6.151146 0.137227
5420 271 1 21.168764 -6.185753 0.208445
5421 272 1 5.866098 -2.756574 -6.173725
5422 272 1 6.836098 -2.789258 -6.076518
5423 272 1 7.806098 -2.653335 -6.087373
5424 272 1 8.776098 -2.691393 -6.165999
5425 272 1 9.746098 -2.631837 -6.159437
5426 272 1 10.716098 -2.627829 -6.105854
5427 272 1 11.686098 -2.773565 -6.250619
5428 272 1 12.656098 -2.643246 -6.255707
5429 272 1 13.626098 -2.803235 -6.261094
5430 272 1 14.596098 -2.775916 -6.126484
5431 272 1 15.566098 -2.658681 -6.248055
5432 272 1 16.536098 -2.694708 -6.140627
5433 272 1 17.506098 -2.696460 -6.205152
5434 272 1 18.476098 -2.753291 -6.172005
5435 272 1 19.446098 -2.645562 -6.160770
5436 272 1 20.416098 -2.654811 -6.117254
5437 272 1 21.386098 -2.678186 -6.239709
5438 272 1 22.356098 -2.773389 -6.087284
5439 272 1 23.326098 -2.674383 -6.087613
5440 272 1 24.296098 -2.797142 -6.198646
5441 273 1 9.376760 -4.516626 -3.857706
5442 273 1 10.346760 -4.447216 -3.791637
5443 273 1 11.316760 -4.456054 -3.792473
5444 273 1 12.286760 -4.498146 -3.723961
5445 273 1 13.256760 -4.468982 -3.821178
5446 273 1 14.226760 -4.551766 -3.708373
5447 273 1 15.196760 -4.511629 -3.710441
5448 273 1 16.166760 -4.527726 -3.755871
5449 273 1 17.136760 -4.449790 -3.818385
5450 273 1 18.106760 -4.399976 -3.825048
5451 273 1 19.076760 -4.489554 -3.819101
5452 273 1 20.046760 -4.399544 -3.861630
5453 273 1 21.016760 -4.461642 -3.820216
5454 273 1 21.986760 -4.542073 -3.779508
5455 273 1 22.956760 -4.501428 -3.798301
5456 273 1 23.926760 -4.518555 -3.793514
5457 273 1 24.896760 -4.452657 -3.863775
5458 273 1 25.866760 -4.568752 -3.822386
5459 273 1 26.836760 -4.567336 -3.747785
5460 273 1 27.806760 -4.537163 -3.758513
5461 274 1 -6.815581 2.528742 -2.172996
5462 274 1 -5.845581 2.552647 -2.249282
5463 274 1 -4.875581 2.697117 -2.335459
5464 274 1 -3.905581 2.607062 -2.154960
5465 274 1 -2.935581 2.596063 -2.174969
5466 274 1 -1.965581 2.659321 -2.232238
5467 274 1 -0.995581 2.694695 -2.321871
5468 274 1 -0.025581 2.550615 -2.184967
5469 274 1 0.944419 2.586935 -2.256536
5470 274 1 1.914419 2.556544 -2.267726
5471 274 1 2.884419 2.700275 -2.235378
5472 274 1 3.854419 2.555277 -2.198382
5473 274 1 4.824419 2.533984 -2.321032
5474 274 1 5.794419 2.697166 -2.162170
5475 274 1 6.764419 2.536212 -2.242206
5476 274 1 7.734419 2.635768 -2.210828
5477 274 1 8.704419 2.712658 -2.148999
5478 274 1 9.674419 2.545858 -2.268114
5479 274 1 10.644419 2.684262 -2.315008
5480 274 1 11.614419 2.627871 -2.160624
5481 275 1 -9.329587 -3.377080 0.503503
5482 275 1 -8.359587 -3.368302 0.401344
5483 275 1 -7.389587 -3.374399 0.575768
5484 275 1 -6.419587 -3.458040 0.473106
5485 275 1 -5.449587 -3.470113 0.396123
5486 275 1 -4.479587 -3.407561 0.535792
5487 275 1 -3.509587 -3.484430 0.465867
5488 275 1 -2.539587 -3.416350 0.407427
5489 275 1 -1.569587 -3.363840 0.437225
5490 275 1 -0.599587 -3.421821 0.544491
5491 275 1 0.370413 -3.420175 0.569563
5492 275 1 1.340413 -3.446416 0.463065
5493 275 1 2.310413 -3.387217 0.495772
5494 275 1 3.280413 -3.465330 0.501263
5495 275 1 4.250413 -3.343245 0.523934
5496 275 1 5.220413 -3.443522 0.539490
5497 275 1 6.190413 -3.432186 0.548607
5498 275 1 7.160413 -3.406439 0.574235
5499 275 1 8.130413 -3.347242 0.522057
5500 275 1 9.100413 -3.396669 0.535743
5501 276 1 9.481901 -0.437873 2.799609
5502 276 1 10.451901 -0.479975 2.800640
5503 276 1 11.421901 -0.465060 2.808057
5504 276 1 12.391901 -0.560808 2.840339
5505 276 1 13.361901 -0.527367 2.847210
5506 276 1 14.331901 -0.509958 2.949909
5507 276 1 15.301901 -0.407303 2.824206
5508 276 1 16.271901 -0.480237 2.818822
5509 276 1 17.241901 -0.408212 2.872394
5510 276 1 18.211901 -0.417435 2.873323
5511 276 1 19.181901 -0.494235 2.790763
5512 276 1 20.151901 -0.445472 2.879702
5513 276 1 21.121901 -0.424205 2.898676
5514 276 1 22.091901 -0.380600 2.874002
5515 276 1 23.061901 -0.398165 2.813906
5516 276 1 24.031901 -0.430515 2.827492
5517 276 1 25.001901 -0.557295 2.823901
5518 276 1 25.971901 -0.544829 2.797204
5519 276 1 26.941901 -0.426574 2.948620
5520 276 1 27.911901 -0.436482 2.830461
5521 277 1 -6.618140 -4.803686 -2.783100
5522 277 1 -5.648140 -4.825018 -2.792671
5523 277 1 -4.678140 -4.823337 -2.873459
5524 277 1 -3.708140 -4.839520 -2.854764
5525 277 1 -2.738140 -4.654412 -2.855209
5526 277 1 -1.768140 -4.758685 -2.797895
5527 277 1 -0.798140 -4.740166 -2.802399
5528 277 1 0.171860 -4.713389 -2.925896
5529 277 1 1.141860 -4.845936 -2.830533
5530 277 1 2.111860 -4.756952 -2.799366
5531 277 1 3.081860 -4.669258 -2.925998
5532 277 1 4.051860 -4.770166 -2.886257
5533 277 1 5.021860 -4.830924 -2.756991
5534 277 1 5.991860 -4.833073 -2.891943
5535 277 1 6.961860 -4.751611 -2.825303
5536 277 1 7.931860 -4.689617 -2.873316
5537 277 1 8.901860 -4.714557 -2.903903
5538 277 1 9.871860 -4.753992 -2.845222
5539 277 1 10.841860 -4.805888 -2.760947
5540 277 1 11.811860 -4.729293 -2.743804
5541 278 1 2.832489 4.409276 -1.558483
5542 278 1 3.802489 4.473751 -1.495381
5543 278 1 4.772489 4.414022 -1.583534
5544 278 1 5.742489 4.469871 -1.662020
5545 278 1 6.712489 4.380810 -1.575054
5546 278 1 7.682489 4.414357 -1.579891
5547 278 1 8.652489 4.391807 -1.563761
5548 278 1 9.622489 4.446300 -1.545522
5549 278 1 10.592489 4.491143 -1.518901
5550 278 1 11.562489 4.503028 -1.564580
5551 278 1 12.532489 4.324140 -1.673855
5552 278 1 13.502489 4.494978 -1.548792
5553 278 1 14.472489 4.397536 -1.505911
5554 278 1 15.442489 4.422530 -1.507293
5555 278 1 16.412489 4.454332 -1.662996
5556 278 1 17.382489 4.341580 -1.646246
5557 278 1 18.352489 4.445753 -1.586969
5558 278 1 19.322489 4.358858 -1.681082
5559 278 1 20.292489 4.410867 -1.537906
5560 278 1 21.262489 4.399412 -1.600364
5561 279 1 -4.563226 -4.469663 3.827230
5562 279 1 -3.593226 -4.509129 3.638699
5563 279 1 -2.623226 -4.434895 3.749586
5564 279 1 -1.653226 -4.547236 3.784303
5565 279 1 -0.683226 -4.548252 3.695520
5566 279 1 0.286774 -4.568955 3.807561
5567 279 1 1.256774 -4.527927 3.675834
5568 279 1 2.226774 -4.401013 3.748903
5569 279 1 3.196774 -4.508842 3.694297
5570 279 1 4.166774 -4.463611 3.646449
5571 279 1 5.136774 -4.476116 3.764510
5572 279 1 6.106774 -4.515589 3.789342
5573 279 1 7.076774 -4.532132 3.749380
5574 279 1 8.046774 -4.490902 3.696045
5575 279 1 9.016774 -4.556667 3.814458
5576 279 1 9.986774 -4.522584 3.796047
5577 279 1 10.956774 -4.574576 3.709443
5578 279 1 11.926774 -4.522875 3.663474
5579 279 1 12.896774 -4.409708 3.835446
5580 279 1 13.866774 -4.499927 3.801138
5581 280 1 2.101526 -5.397895 2.650865
5582 280 1 3.071526 -5.462214 2.623359
5583 280 1 4.041526 -5.354551 2.651801
5584 280 1 5.011526 -5.387267 2.547642
5585 280 1 5.981526 -5.477115 2.559306
5586 280 1 6.951526 -5.370480 2.510760
5587 280 1 7.921526 -5.463070 2.526575
5588 280 1 8.891526 -5.469258 2.521301
5589 280 1 9.861526 -5.405401 2.566462
5590 280 1 10.831526 -5.449908 2.557141
5591 280 1 11.801526 -5.330346 2.529165
5592 280 1 12.771526 -5.493694 2.562157
5593 280 1 13.741526 -5.491117 2.653588
5594 280 1 14.711526 -5.374663 2.674049
5595 280 1 15.681526 -5.365846 2.592527
5596 280 1 16.651526 -5.446472 2.706310
5597 280 1 17.621526 -5.384363 2.689884
5598 280 1 18.591526 -5.305228 2.548772
5599 280 1 19.561526 -5.404230 2.641548
5600 280 1 20.531526 -5.480843 2.690678
5601 281 1 -7.728040 -0.118937 5.929850
5602 281 1 -6.758040 -0.098052 6.085051
5603 281 1 -5.788040 -0.047517 6.111057
5604 281 1 -4.818040 -0.132554 5.984690
5605 281 1 -3.848040 -0.157906 6.051931
5606 281 1 -2.878040 -0.156498 6.087618
5607 281 1 -1.908040 -0.176558 6.021496
5608 281 1 -0.938040 -0.111661 5.968922
5609 281 1 0.031960 -0.107009 6.043219
5610 281 1 1.001960 -0.091012 6.014353
5611 281 1 1.971960 -0.097109 5.925317
5612 281 1 2.941960 -0.189676 6.103495
5613 281 1 3.911960 -0.192613 6.013393
5614 281 1 4.881960 -0.197800 6.073071
5615 281 1 5.851960 -0.207572 6.089840
5616 281 1 6.821960 -0.021848 6.104201
5617 281 1 7.791960 -0.173532 5.962873
5618 281 1 8.761960 -0.032829 5.989949
5619 281 1 9.731960 -0.018904 5.934320
5620 281 1 10.701960 -0.119366 5.923395
5621 282 1 8.946673 7.945833 2.517570
5622 282 1 9.916673 7.773379 2.561428
5623 282 1 10.886673 7.768618 2.452967
5624 282 1 11.856673 7.881722 2.511525
5625 282 1 12.826673 7.820001 2.479044
5626 282 1 13.796673 7.906661 2.546314
5627 282 1 14.766673 7.881454 2.455525
5628 282 1 15.736673 7.827682 2.534638
5629 282 1 16.706673 7.763868 2.460233
5630 282 1 17.676673 7.828622 2.386610
5631 282 1 18.646673 7.940098 2.447319
5632 282 1 19.616673 7.859473 2.483188
5633 282 1 20.586673 7.761410 2.408637
5634 282 1 21.556673 7.774459 2.423728
5635 282 1 22.526673 7.761759 2.422621
5636 282 1 23.496673 7.810153 2.401795
5637 282 1 24.466673 7.891873 2.443179
5638 282 1 25.436673 7.895509 2.451027
5639 282 1 26.406673 7.838751 2.426689
5640 282 1 27.376673 7.775815 2.392408
5641 283 1 0.162257 -7.669875 0.686178
5642 283 1 1.132257 -7.645320 0.580094
5643 283 1 2.102257 -7.669047 0.603244
5644 283 1 3.072257 -7.762740 0.642133
5645 283 1 4.042257 -7.623322 0.725533
5646 283 1 5.012257 -7.604157 0.657468
5647 283 1 5.982257 -7.645377 0.760877
5648 283 1 6.952257 -7.707353 0.604800
5649 283 1 7.922257 -7.636991 0.701771
5650 283 1 8.892257 -7.694014 0.631151
5651 283 1 9.862257 -7.659807 0.581478
5652 283 1 10.832257 -7.631510 0.683236
5653 283 1 11.802257 -7.631729 0.667558
5654 283 1 12.772257 -7.604978 0.565667
5655 283 1 13.742257 -7.594413 0.561823
5656 283 1 14.712257 -7.615615 0.732049
5657 283 1 15.682257 -7.636122 0.568883
5658 283 1 16.652257 -7.727806 0.675320
5659 283 1 17.622257 -7.603123 0.723704
5660 283 1 18.592257 -7.732776 0.676823
5661 284 1 -0.234184 -8.522511 6.909284
5662 284 1 0.735816 -8.627075 6.850605
5663 284 1 1.705816 -8.560362 6.830127
5664 284 1 2.675816 -8.573182 6.815169
5665 284 1 3.645816 -8.606177 6.837115
5666 284 1 4.615816 -8.578140 6.927640
5667 284 1 5.585816 -8.572107 6.802425
5668 284 1 6.555816 -8.479450 6.833210
5669 284 1 7.525816 -8.511323 6.789669
5670 284 1 8.495816 -8.535619 6.867750
5671 284 1 9.465816 -8.609142 6.813952
5672 284 1 10.435816 -8.476505 6.879377
5673 284 1 11.405816 -8.516595 6.827162
5674 284 1 12.375816 -8.545704 6.932349
5675 284 1 13.345816 -8.523695 6.772189
5676 284 1 14.315816 -8.481559 6.840098
5677 284 1 15.285816 -8.568247 6.878161
5678 284 1 16.255816 -8.629723 6.770502
5679 284 1 17.225816 -8.564982 6.796362
5680 284 1 18.195816 -8.528030 6.831483
5681 285 1 2.749064 0.253420 -7.072177
5682 285 1 3.719064 0.359194 -7.192320
5683 285 1 4.689064 0.302523 -7.191586
5684 285 1 5.659064 0.431290 -7.117602
5685 285 1 6.629064 0.261263 -7.069644
5686 285 1 7.599064 0.287522 -7.155700
5687 285 1 8.569064 0.367710 -7.021209
5688 285 1 9.539064 0.366686 -7.139521
5689 285 1 10.509064 0.450192 -7.184993
5690 285 1 11.479064 0.263518 -7.156733
5691 285 1 12.449064 0.443796 -7.067618
5692 285 1 13.419064 0.402002 -7.042632
5693 285 1 14.389064 0.361137 -7.059749
5694 285 1 15.359064 0.297492 -7.089570
5695 285 1 16.329064 0.296681 -7.123052
5696 285 1 17.299064 0.270837 -7.125964
5697 285 1 18.269064 0.424074 -7.039953
5698 285 1 19.239064 0.364553 -7.007242
5699 285 1 20.209064 0.383269 -7.104244
5700 285 1 21.179064 0.307894 -7.051976
5701 286 1 1.364242 8.977768 5.629666
5702 286 1 2.334242 9.152384 5.609668
5703 286 1 3.304242 8.998379 5.645890
5704 286 1 4.274242 9.011136 5.635200
5705 286 1 5.244242 9.146884 5.455864
5706 286 1 6.214242 9.100992 5.557635
5707 286 1 7.184242 9.075974 5.533618
5708 286 1 8.154242 9.044807 5.639029
5709 286 1 9.124242 9.040546 5.636912
5710 286 1 10.094242 9.104627 5.531660
5711 286 1 11.064242 9.140812 5.646388
5712 286 1 12.034242 8.996377 5.614294
5713 286 1 13.004242 9.000911 5.632636
5714 286 1 13.974242 8.974395 5.455379
5715 286 1 14.944242 8.980841 5.635856
5716 286 1 15.914242 9.136965 5.488671
5717 286 1 16.884242 9.081857 5.636446
5718 286 1 17.854242 9.168228 5.647901
5719 286 1 18.824242 9.076535 5.461321
5720 286 1 19.794242 9.066473 5.641158
5721 287 1 -8.068603 9.079807 4.361497
5722 287 1 -7.098603 9.167694 4.273265
5723 287 1 -6.128603 9.080266 4.360946
5724 287 1 -5.158603 9.058896 4.408419
5725 287 1 -4.188603 9.153789 4.286035
5726 287 1 -3.218603 9.149289 4.308239
5727 287 1 -2.248603 9.056898 4.362101
5728 287 1 -1.278603 9.234738 4.322260
5729 287 1 -0.308603 9.206118 4.356996
5730 287 1 0.661397 9.205544 4.368027
5731 287 1 1.631397 9.170444 4.371542
5732 287 1 2.601397 9.103955 4.406390
5733 287 1 3.571397 9.084276 4.382490
5734 287 1 4.541397 9.048139 4.404150
5735 287 1 5.511397 9.230287 4.262141
5736 287 1 6.481397 9.082057 4.425443
5737 287 1 7.451397 9.046980 4.292197
5738 287 1 8.421397 9.182051 4.258057
5739 287 1 9.391397 9.090644 4.269514
5740 287 1 10.361397 9.242667 4.307718
5741 288 1 6.575788 -4.645586 -0.711694
5742 288 1 7.545788 -4.686871 -0.718702
5743 288 1 8.515788 -4.734348 -0.670548
5744 288 1 9.485788 -4.747219 -0.604863
5745 288 1 10.455788 -4.630080 -0.708571
5746 288 1 11.425788 -4.676272 -0.636472
5747 288 1 12.395788 -4.647980 -0.729294
5748 288 1 13.365788 -4.783169 -0.616062
5749 288 1 14.335788 -4.605459 -0.725540
5750 288 1 15.305788 -4.608224 -0.658683
5751 288 1 16.275788 -4.773714 -0.755256
5752 288 1 17.245788 -4.666671 -0.759543
5753 288 1 18.215788 -4.786844 -0.668354
5754 288 1 19.185788 -4.673828 -0.769030
5755 288 1 20.155788 -4.605583 -0.748308
5756 288 1 21.125788 -4.669135 -0.679842
5757 288 1 22.095788 -4.735807 -0.762853
5758 288 1 23.065788 -4.601497 -0.625063
5759 288 1 24.035788 -4.759942 -0.663548
5760 288 1 25.005788 -4.751815 -0.699211
5761 289 1 3.326581 1.168616 -4.303990
5762 289 1 4.296581 1.119887 -4.147321
5763 289 1 5.266581 1.135202 -4.128617
5764 289 1 6.236581 1.103505 -4.164964
5765 289 1 7.206581 1.232326 -4.301214
5766 289 1 8.176581 1.120606 -4.235682
5767 289 1 9.146581 1.153900 -4.160107
5768 289 1 10.116581 1.176342 -4.188686
5769 289 1 11.086581 1.173661 -4.177920
5770 289 1 12.056581 1.227142 -4.274502
5771 289 1 13.026581 1.236425 -4.212919
5772 289 1 13.996581 1.252498 -4.141214
5773 289 1 14.966581 1.126655 -4.202350
5774 289 1 15.936581 1.184458 -4.219395
5775 289 1 16.906581 1.158693 -4.269403
5776 289 1 17.876581 1.227088 -4.286835
5777 289 1 18.846581 1.111702 -4.187855
5778 289 1 19.816581 1.275528 -4.141584
5779 289 1 20.786581 1.120911 -4.242188
5780 289 1 21.756581 1.196625 -4.190646
5781 290 1 -9.875424 -7.997120 7.097787
5782 290 1 -8.905424 -7.893871 7.172083
5783 290 1 -7.935424 -7.989683 7.058653
5784 290 1 -6.965424 -8.056108 7.015723
5785 290 1 -5.995424 -7.993757 7.176403
5786 290 1 -5.025424 -7.859153 7.069410
5787 290 1 -4.055424 -7.962575 7.182650
5788 290 1 -3.085424 -7.871607 7.127234
5789 290 1 -2.115424 -7.947067 7.143956
5790 290 1 -1.145424 -8.028395 7.063411
5791 290 1 -0.175424 -8.020764 7.075640
5792 290 1 0.794576 -8.015127 7.191505
5793 290 1 1.764576 -8.049707 7.176770
5794 290 1 2.734576 -8.015827 7.061242
5795 290 1 3.704576 -7.965552 7.019547
5796 290 1 4.674576 -7.976913 7.197599
5797 290 1 5.644576 -7.987862 7.067631
5798 290 1 6.614576 -8.041479 7.086602
5799 290 1 7.584576 -7.915573 7.177502
5800 290 1 8.554576 -7.983068 7.186811
5801 291 1 -1.004302 -3.730043 -6.540446
5802 291 1 -0.034302 -3.767494 -6.677783
5803 291 1 0.935698 -3.842396 -6.623218
5804 291 1 1.905698 -3.820052 -6.659564
5805 291 1 2.875698 -3.852203 -6.705471
5806 291 1 3.845698 -3.771465 -6.548142
5807 291 1 4.815698 -3.738288 -6.519418
5808 291 1 5.785698 -3.833650 -6.616816
5809 291 1 6.755698 -3.819797 -6.613752
5810 291 1 7.725698 -3.781337 -6.625978
5811 291 1 8.695698 -3.747674 -6.564955
5812 291 1 9.665698 -3.869141 -6.624197
5813 291 1 10.635698 -3.835780 -6.614703
5814 291 1 11.605698 -3.791314 -6.578407
5815 291 1 12.575698 -3.760505 -6.665299
5816 291 1 13.545698 -3.694624 -6.555937
5817 291 1 14.515698 -3.703334 -6.638180
5818 291 1 15.485698 -3.815229 -6.706960
5819 291 1 16.455698 -3.780029 -6.649203
5820 291 1 17.425698 -3.727455 -6.681989
5821 292 1 4.749951 4.030343 0.323191
5822 292 1 5.719951 4.014375 0.462808
5823 292 1 6.689951 4.035775 0.323283
5824 292 1 7.659951 4.003654 0.405664
5825 292 1 8.629951 4.080699 0.302942
5826 292 1 9.599951 4.086166 0.379873
5827 292 1 10.569951 3.972105 0.342104
5828 292 1 11.539951 4.066219 0.306611
5829 292 1 12.509951 3.944711 0.373132
5830 292 1 13.479951 3.921598 0.329962
5831 292 1 14.449951 3.919112 0.381052
5832 292 1 15.419951 3.993848 0.426348
5833 292 1 16.389951 3.908403 0.346230
5834 292 1 17.359951 3.898214 0.421014
5835 292 1 18.329951 3.915191 0.310423
5836 292 1 19.299951 3.963428 0.398570
5837 292 1 20.269951 4.066595 0.301295
5838 292 1 21.239951 3.944531 0.300939
5839 292 1 22.209951 3.985496 0.426514
5840 292 1 23.179951 3.949354 0.304999
5841 293 1 -0.631466 -9.062967 7.826371
5842 293 1 0.338534 -9.086519 7.761241
5843 293 1 1.308534 -9.102795 7.827546
5844 293 1 2.278534 -9.229688 7.753177
5845 293 1 3.248534 -9.185363 7.672893
5846 293 1 4.218534 -9.230992 7.829160
5847 293 1 5.188534 -9.160022 7.716599
5848 293 1 6.158534 -9.202413 7.692356
5849 293 1 7.128534 -9.160209 7.814609
5850 293 1 8.098534 -9.165198 7.787439
5851 293 1 9.068534 -9.200996 7.704277
5852 293 1 10.038534 -9.064881 7.743540
5853 293 1 11.008534 -9.082235 7.684130
5854 293 1 11.978534 -9.142616 7.715717
5855 293 1 12.948534 -9.165476 7.722272
5856 293 1 13.918534 -9.132331 7.798803
5857 293 1 14.888534 -9.095438 7.727537
5858 293 1 15.858534 -9.183456 7.682009
5859 293 1 16.828534 -9.065802 7.823360
5860 293 1 17.798534 -9.163233 7.681951
5861 294 1 -6.140575 6.817902 -2.075468
5862 294 1 -5.170575 6.658441 -1.995248
5863 294 1 -4.200575 6.647638 -1.959217
5864 294 1 -3.230575 6.723585 -2.031406
5865 294 1 -2.260575 6.636150 -1.916302
5866 294 1 -1.290575 6.823474 -1.988680
5867 294 1 -0.320575 6.625070 -1.925458
5868 294 1 0.649425 6.725977 -2.035833
5869 294 1 1.619425 6.656418 -2.003705
5870 294 1 2.589425 6.823641 -2.040199
5871 294 1 3.559425 6.701218 -1.921696
5872 294 1 4.529425 6.634078 -1.916279
5873 294 1 5.499425 6.665201 -2.008512
5874 294 1 6.469425 6.820419 -1.974436
5875 294 1 7.439425 6.651356 -2.009504
5876 294 1 8.409425 6.737315 -1.983222
5877 294 1 9.379425 6.808653 -2.021812
5878 294 1 10.349425 6.747243 -2.068793
5879 294 1 11.319425 6.718929 -1.968764
5880 294 1 12.289425 6.710482 -2.066528
5881 295 1 -5.068467 3.030299 -0.605488
5882 295 1 -4.098467 3.111394 -0.630009
5883 295 1 -3.128467 3.119676 -0.523112
5884 295 1 -2.158467 3.005521 -0.542864
5885 295 1 -1.188467 3.097117 -0.586325
5886 295 1 -0.218467 3.165269 -0.512464
5887 295 1 0.751533 3.037232 -0.600190
5888 295 1 1.721533 3.128665 -0.679051
5889 295 1 2.691533 3.055259 -0.585846
5890 295 1 3.661533 3.025522 -0.644121
5891 295 1 4.631533 3.034995 -0.527860
5892 295 1 5.601533 3.126337 -0.579500
5893 295 1 6.571533 3.139042 -0.578836
5894 295 1 7.541533 3.117076 -0.629982
5895 295 1 8.511533 3.124269 -0.609770
5896 295 1 9.481533 3.146353 -0.680262
5897 295 1 10.451533 3.032729 -0.638355
5898 295 1 11.421533 3.012078 -0.586953
5899 295 1 12.391533 3.158974 -0.571845
5900 295 1 13.361533 3.155926 -0.619136
5901 296 1 4.861077 -4.951186 -2.914432
5902 296 1 5.831077 -4.963389 -2.941125
5903 296 1 6.801077 -5.005886 -3.014637
5904 296 1 7.771077 -4.995505 -2.977166
5905 296 1 8.741077 -4.952394 -3.015365
5906 296 1 9.711077 -4.953497 -2.954059
5907 296 1 10.681077 -5.120874 -3.065709
5908 296 1 11.651077 -5.010576 -3.022400
5909 296 1 12.621077 -4.988715 -2.929119
5910 296 1 13.591077 -4.990477 -2.951050
5911 296 1 14.561077 -4.999246 -2.933640
5912 296 1 15.531077 -5.034267 -3.047374
5913 296 1 16.501077 -5.110415 -2.974657
5914 296 1 17.471077 -5.022018 -2.952881
5915 296 1 18.441077 -4.995553 -2.914596
5916 296 1 19.411077 -5.072894 -2.946256
5917 296 1 20.381077 -4.979006 -2.952983
5918 296 1 21.351077 -5.033046 -2.911732
5919 296 1 22.321077 -5.093416 -3.028171
5920 296 1 23.291077 -5.007684 -2.946852
5921 297 1 2.900754 -1.771344 -5.143083
5922 297 1 3.870754 -1.794132 -5.098678
5923 297 1 4.840754 -1.874370 -5.034874
5924 297 1 5.810754 -1.843075 -5.070879
5925 297 1 6.780754 -1.765669 -5.020902
5926 297 1 7.750754 -1.791067 -5.052276
5927 297 1 8.720754 -1.700105 -4.988473
5928 297 1 9.690754 -1.768465 -5.069723
5929 297 1 10.660754 -1.750374 -5.131693
5930 297 1 11.630754 -1.791334 -5.055339
5931 297 1 12.600754 -1.772857 -4.964890
5932 297 1 13.570754 -1.795531 -5.082664
5933 297 1 14.540754 -1.755012 -5.052297
5934 297 1 15.510754 -1.853262 -5.150152
5935 297 1 16.480754 -1.871995 -5.073425
5936 297 1 17.450754 -1.758144 -5.057051
5937 297 1 18.420754 -1.856834 -5.018442
5938 297 1 19.390754 -1.751783 -4.978071
5939 297 1 20.360754 -1.769872 -5.007562
5940 297 1 21.330754 -1.714228 -5.106458
5941 298 1 -0.998558 -2.228565 -7.401270
5942 298 1 -0.028558 -2.280369 -7.405969
5943 298 1 0.941442 -2.220604 -7.457393
5944 298 1 1.911442 -2.303431 -7.367142
5945 298 1 2.881442 -2.237738 -7.403998
5946 298 1 3.851442 -2.274344 -7.525468
5947 298 1 4.821442 -2.325404 -7.400928
5948 298 1 5.791442 -2.232227 -7.531868
5949 298 1 6.761442 -2.326722 -7.397351
5950 298 1 7.731442 -2.358571 -7.516303
5951 298 1 8.701442 -2.254796 -7.411834
5952 298 1 9.671442 -2.345138 -7.354562
5953 298 1 10.641442 -2.271223 -7.494983
5954 298 1 11.611442 -2.402143 -7.515654
5955 298 1 12.581442 -2.316299 -7.365657
5956 298 1 13.551442 -2.372956 -7.490802
5957 298 1 14.521442 -2.263945 -7.371319
5958 298 1 15.491442 -2.332723 -7.447907
5959 298 1 16.461442 -2.252345 -7.504445
5960 298 1 17.431442 -2.368696 -7.504505
5961 299 1 -4.644485 -6.728042 -1.734089
5962 299 1 -3.674485 -6.778196 -1.692767
5963 299 1 -2.704485 -6.701750 -1.772708
5964 299 1 -1.734485 -6.744809 -1.789624
5965 299 1 -0.764485 -6.729595 -1.691748
5966 299 1 0.205515 -6.810792 -1.681391
5967 299 1 1.175515 -6.807432 -1.676499
5968 299 1 2.145515 -6.849674 -1.620547
5969 299 1 3.115515 -6.853565 -1.717010
5970 299 1 4.085515 -6.659218 -1.668114
5971 299 1 5.055515 -6.688962 -1.781583
5972 299 1 6.025515 -6.689545 -1.791869
5973 299 1 6.995515 -6.701231 -1.804539
5974 299 1 7.965515 -6.832892 -1.673264
5975 299 1 8.935515 -6.668857 -1.753813
5976 299 1 9.905515 -6.838007 -1.727546
5977 299 1 10.875515 -6.832597 -1.747349
5978 299 1 11.845515 -6.721769 -1.705874
5979 299 1 12.815515 -6.761966 -1.623186
5980 299 1 13.785515 -6.667775 -1.703576
5981 300 1 -8.452378 -2.772179 -2.537493
5982 300 1 -7.482378 -2.742919 -2.521033
5983 300 1 -6.512378 -2.778790 -2.540343
5984 300 1 -5.542378 -2.855907 -2.517113
5985 300 1 -4.572378 -2.737981 -2.535218
5986 300 1 -3.602378 -2.833011 -2.430413
5987 300 1 -2.632378 -2.812457 -2.445001
5988 300 1 -1.662378 -2.750182 -2.410760
5989 300 1 -0.692378 -2.893263 -2.563755
5990 300 1 0.277622 -2.819544 -2.509830
5991 300 1 1.247622 -2.847655 -2.549553
5992 300 1 2.217622 -2.801323 -2.473288
5993 300 1 3.187622 -2.849234 -2.506209
5994 300 1 4.157622 -2.777205 -2.419810
5995 300 1 5.127622 -2.912641 -2.415830
5996 300 1 6.097622 -2.751670 -2.528695
5997 300 1 7.067622 -2.734272 -2.384940
5998 300 1 8.037622 -2.898614 -2.419485
5999 300 1 9.007622 -2.842643 -2.487739
6000 300 1 9.977622 -2.871337 -2.539169
6001 301 1 -8.509535 1.148888 5.342794
6002 301 1 -7.539535 1.075018 5.359150
6003 301 1 -6.569535 1.120834 5.176852
6004 301 1 -5.599535 1.140634 5.255922
6005 301 1 -4.629535 1.151981 5.290210
6006 301 1 -3.659535 1.038873 5.268604
6007 301 1 -2.689535 1.000900 5.286641
6008 301 1 -1.719535 0.994322 5.340294
6009 301 1 -0.749535 1.142690 5.284983
6010 301 1 0.220465 1.024684 5.283875
6011 301 1 1.190465 1.113582 5.268858
6012 301 1 2.160465 1.099853 5.196656
6013 301 1 3.130465 1.163057 5.334124
6014 301 1 4.100465 1.159408 5.227553
6015 301 1 5.070465 1.136272 5.197218
6016 301 1 6.040465 0.980405 5.329240
6017 301 1 7.010465 0.986482 5.322960
6018 301 1 7.980465 0.998644 5.265714
6019 301 1 8.950465 1.102512 5.194303
6020 301 1 9.920465 1.032338 5.178166
6021 302 1 4.300731 4.167485 1.466832
6022 302 1 5.270731 4.122331 1.483917
6023 302 1 6.240731 4.136914 1.528586
6024 302 1 7.210731 4.221247 1.515699
6025 302 1 8.180731 4.127589 1.412281
6026 302 1 9.150731 4.222244 1.446138
6027 302 1 10.120731 4.155831 1.379668
6028 302 1 11.090731 4.226230 1.403970
6029 302 1 12.060731 4.123011 1.407801
6030 302 1 13.030731 4.286727 1.489810
6031 302 1 14.000731 4.110075 1.378823
6032 302 1 14.970731 4.129417 1.421275
6033 302 1 15.940731 4.242799 1.539061
6034 302 1 16.910731 4.164362 1.391591
6035 302 1 17.880731 4.113343 1.395570
6036 302 1 18.850731 4.159316 1.525374
6037 302 1 19.820731 4.176215 1.347120
6038 302 1 20.790731 4.231912 1.406504
6039 302 1 21.760731 4.184971 1.522292
6040 302 1 22.730731 4.279073 1.408352
6041 303 1 -8.297885 -9.641094 -3.397917
6042 303 1 -7.327885 -9.615871 -3.483528
6043 303 1 -6.357885 -9.649618 -3.303841
6044 303 1 -5.387885 -9.667955 -3.367066
6045 303 1 -4.417885 -9.746514 -3.404915
6046 303 1 -3.447885 -9.690611 -3.401491
6047 303 1 -2.477885 -9.662037 -3.428929
6048 303 1 -1.507885 -9.721946 -3.385874
6049 303 1 -0.537885 -9.677704 -3.463724
6050 303 1 0.432115 -9.776023 -3.477784
6051 303 1 1.402115 -9.750992 -3.363080
6052 303 1 2.372115 -9.668678 -3.455361
6053 303 1 3.342115 -9.795742 -3.332898
6054 303 1 4.312115 -9.665956 -3.364325
6055 303 1 5.282115 -9.711957 -3.380441
6056 303 1 6.252115 -9.743432 -3.454904
6057 303 1 7.222115 -9.648188 -3.438745
6058 303 1 8.192115 -9.655651 -3.474360
6059 303 1 9.162115 -9.770161 -3.416099
6060 303 1 10.132115 -9.639799 -3.297195
6061 304 1 2.270802 5.056403 3.426681
6062 304 1 3.240802 5.206456 3.338149
6063 304 1 4.210802 5.089123 3.375047
6064 304 1 5.180802 5.112016 3.498220
6065 304 1 6.150802 5.188189 3.405193
6066 304 1 7.120802 5.035908 3.410757
6067 304 1 8.090802 5.145938 3.374280
6068 304 1 9.060802 5.188324 3.523846
6069 304 1 10.030802 5.132980 3.420868
6070 304 1 11.000802 5.134879 3.468170
6071 304 1 11.970802 5.036024 3.411999
6072 304 1 12.940802 5.204378 3.529767
6073 304 1 13.910802 5.035939 3.500807
6074 304 1 14.880802 5.194617 3.499778
6075 304 1 15.850802 5.067157 3.395754
6076 304 1 16.820802 5.137490 3.407266
6077 304 1 17.790802 5.158698 3.501848
6078 304 1 18.760802 5.057964 3.455329
6079 304 1 19.730802 5.110549 3.460215
6080 304 1 20.700802 5.184023 3.339070
6081 305 1 -2.423943 -6.932771 -5.620289
6082 305 1 -1.453943 -6.963869 -5.630088
6083 305 1 -0.483943 -7.020668 -5.519463
6084 305 1 0.486057 -6.846423 -5.618313
6085 305 1 1.456057 -6.924881 -5.643660
6086 305 1 2.426057 -6.984203 -5.656276
6087 305 1 3.396057 -6.934881 -5.477619
6088 305 1 4.366057 -6.908932 -5.461225
6089 305 1 5.336057 -6.902742 -5.551531
6090 305 1 6.306057 -6.983407 -5.631181
6091 305 1 7.276057 -6.969414 -5.530987
6092 305 1 8.246057 -7.030462 -5.617869
6093 305 1 9.216057 -6.857962 -5.564571
6094 305 1 10.186057 -6.899294 -5.617877
6095 305 1 11.156057 -7.008149 -5.513269
6096 305 1 12.126057 -6.938506 -5.500096
6097 305 1 13.096057 -7.016875 -5.472522
6098 305 1 14.066057 -6.993694 -5.553042
6099 305 1 15.036057 -6.969886 -5.625275
6100 305 1 16.006057 -7.007231 -5.612668
6101 306 1 -9.238658 -8.996846 1.182172
6102 306 1 -8.268658 -8.864489 1.096477
6103 306 1 -7.298658 -8.913895 1.257424
6104 306 1 -6.328658 -9.007955 1.233007
6105 306 1 -5.358658 -8.945318 1.080467
6106 306 1 -4.388658 -8.941087 1.246640
6107 306 1 -3.418658 -8.896084 1.243127
6108 306 1 -2.448658 -8.980647 1.203630
6109 306 1 -1.478658 -9.011037 1.166060
6110 306 1 -0.508658 -8.876943 1.099436
6111 306 1 0.461342 -8.897375 1.116042
6112 306 1 1.431342 -8.862063 1.076676
6113 306 1 2.401342 -8.844066 1.239956
6114 306 1 3.371342 -8.841338 1.222614
6115 306 1 4.341342 -8.917497 1.237625
6116 306 1 5.311342 -8.958371 1.156765
6117 306 1 6.281342 -8.874485 1.206281
6118 306 1 7.251342 -8.816045 1.171233
6119 306 1 8.221342 -8.937083 1.250378
6120 306 1 9.191342 -8.929750 1.266179
6121 307 1 8.980992 -0.675280 -9.460222
6122 307 1 9.950992 -0.650249 -9.465276
6123 307 1 10.920992 -0.624154 -9.571526
6124 307 1 11.890992 -0.693948 -9.522887
6125 307 1 12.860992 -0.629912 -9.490557
6126 307 1 13.830992 -0.499774 -9.567966
6127 307 1 14.800992 -0.640515 -9.492894
6128 307 1 15.770992 -0.497133 -9.601360
6129 307 1 16.740992 -0.642305 -9.581318
6130 307 1 17.710992 -0.556299 -9.565684
6131 307 1 18.680992 -0.638078 -9.616221
6132 307 1 19.650992 -0.605978 -9.517329
6133 307 1 20.620992 -0.517622 -9.493672
6134 307 1 21.590992 -0.687451 -9.480178
6135 307 1 22.560992 -0.538634 -9.555067
6136 307 1 23.530992 -0.625796 -9.609697
6137 307 1 24.500992 -0.554365 -9.582609
6138 307 1 25.470992 -0.594176 -9.445571
6139 307 1 26.440992 -0.644882 -9.426992
6140 307 1 27.410992 -0.692665 -9.611670
6141 308 1 5.014991 -4.398096 -5.648537
6142 308 1 5.984991 -4.496200 -5.740589
6143 308 1 6.954991 -4.505241 -5.787712
6144 308 1 7.924991 -4.532306 -5.730729
6145 308 1 8.894991 -4.375075 -5.723733
6146 308 1 9.864991 -4.457202 -5.786882
6147 308 1 10.834991 -4.412619 -5.681706
6148 308 1 11.804991 -4.359063 -5.790547
6149 308 1 12.774991 -4.396596 -5.686695
6150 308 1 13.744991 -4.398357 -5.682508
6151 308 1 14.714991 -4.527873 -5.675497
6152 308 1 15.684991 -4.492439 -5.648360
6153 308 1 16.654991 -4.367652 -5.684352
6154 308 1 17.624991 -4.407937 -5.737031
6155 308 1 18.594991 -4.523461 -5.703795
6156 308 1 19.564991 -4.407963 -5.616742
6157 308 1 20.534991 -4.523458 -5.732048
6158 308 1 21.504991 -4.384212 -5.772333
6159 308 1 22.474991 -4.514592 -5.769870
6160 308 1 23.444991 -4.501980 -5.676239
6161 309 1 -7.604035 -2.891061 -8.583281
6162 309 1 -6.634035 -2.834747 -8.522689
6163 309 1 -5.664035 -3.010670 -8.522602
6164 309 1 -4.694035 -2.821805 -8.486548
6165 309 1 -3.724035 -2.970837 -8.653238
6166 309 1 -2.754035 -2.845303 -8.594103
6167 309 1 -1.784035 -2.827130 -8.620495
6168 309 1 -0.814035 -2.878497 -8.536580
6169 309 1 0.155965 -2.926733 -8.550160
6170 309 1 1.125965 -2.839307 -8.590352
6171 309 1 2.095965 -2.889186 -8.503089
6172 309 1 3.065965 -2.946131 -8.589322
6173 309 1 4.035965 -2.860169 -8.597203
6174 309 1 5.005965 -2.932682 -8.505500
6175 309 1 5.975965 -2.878919 -8.660924
6176 309 1 6.945965 -2.924488 -8.646403
6177 309 1 7.915965 -2.913063 -8.494625
6178 309 1 8.885965 -2.966659 -8.478815
6179 309 1 9.855965 -2.969441 -8.626572
6180 309 1 10.825965 -2.971405 -8.606625
6181 310 1 -1.994745 0.124586 7.857429
6182 310 1 -1.024745 0.113248 7.830889
6183 310 1 -0.054745 0.043828 7.985413
6184 310 1 0.915255 0.188264 7.971509
6185 310 1 1.885255 0.070935 7.917254
6186 310 1 2.855255 0.161994 7.916269
6187 310 1 3.825255 0.122127 7.804109
6188 310 1 4.795255 0.076673 7.874946
6189 310 1 5.765255 0.164526 7.859668
6190 310 1 6.735255 0.064767 7.843240
6191 310 1 7.705255 0.153541 7.881378
6192 310 1 8.675255 0.158240 7.948774
6193 310 1 9.645255 0.021086 7.942238
6194 310 1 10.615255 0.125449 7.862445
6195 310 1 11.585255 0.167831 7.936973
6196 310 1 12.555255 0.061995 7.952368
6197 310 1 13.525255 0.133586 7.839224
6198 310 1 14.495255 0.029216 7.967207
6199 310 1 15.465255 0.036276 7.833100
6200 310 1 16.435255 0.043830 7.866907
6201 311 1 6.351406 5.689039 -5.881962
6202 311 1 7.321406 5.719471 -5.839215
6203 311 1 8.291406 5.677467 -5.929417
6204 311 1 9.261406 5.678185 -5.854871
6205 311 1 10.231406 5.851561 -5.901463
6206 311 1 11.201406 5.807991 -5.785414
6207 311 1 12.171406 5.665097 -5.921165
6208 311 1 13.141406 5.736229 -5.821269
6209 311 1 14.111406 5.826017 -5.762869
6210 311 1 15.081406 5.822789 -5.820821
6211 311 1 16.051406 5.751188 -5.884711
6212 311 1 17.021406 5.745293 -5.761844
6213 311 1 17.991406 5.742076 -5.752974
6214 311 1 18.961406 5.721921 -5.888492
6215 311 1 19.931406 5.774716 -5.901691
6216 311 1 20.901406 5.745951 -5.911068
6217 311 1 21.871406 5.785295 -5.806884
6218 311 1 22.841406 5.843319 -5.844720
6219 311 1 23.811406 5.808627 -5.831997
6220 311 1 24.781406 5.770901 -5.792115
6221 312 1 -0.080040 -8.910717 -5.842757
6222 312 1 0.889960 -8.815398 -5.956827
6223 312 1 1.859960 -8.944706 -5.989646
6224 312 1 2.829960 -8.880536 -5.924318
6225 312 1 3.799960 -8.959397 -5.968735
6226 312 1 4.769960 -8.953884 -5.903061
6227 312 1 5.739960 -8.805496 -5.923627
6228 312 1 6.709960 -8.915343 -5.911538
6229 312 1 7.679960 -8.788196 -5.830896
6230 312 1 8.649960 -8.846613 -5.849621
6231 312 1 9.619960 -8.903559 -5.933698
6232 312 1 10.589960 -8.945060 -5.995798
6233 312 1 11.559960 -8.947691 -5.845261
6234 312 1 12.529960 -8.838985 -5.880359
6235 312 1 13.499960 -8.847628 -5.851681
6236 312 1 14.469960 -8.907230 -5.878364
6237 312 1 15.439960 -8.773306 -5.871751
6238 312 1 16.409960 -8.883495 -5.888931
6239 312 1 17.379960 -8.780661 -5.958129
6240 312 1 18.349960 -8.900725 -5.900964
6241 313 1 -1.467800 0.583257 0.671933
6242 313 1 -0.497800 0.454773 0.794811
6243 313 1 0.472200 0.471069 0.779662
6244 313 1 1.442200 0.626515 0.821501
6245 313 1 2.412200 0.604603 0.764861
6246 313 1 3.382200 0.512228 0.751941
6247 313 1 4.352200 0.492097 0.802845
6248 313 1 5.322200 0.455268 0.648844
6249 313 1 6.292200 0.510227 0.811634
6250 313 1 7.262200 0.555906 0.758087
6251 313 1 8.232200 0.579519 0.775466
6252 313 1 9.202200 0.623890 0.656286
6253 313 1 10.172200 0.509745 0.821588
6254 313 1 11.142200 0.501663 0.785480
6255 313 1 12.112200 0.532928 0.682281
6256 313 1 13.082200 0.636907 0.636346
6257 313 1 14.052200 0.588490 0.781665
6258 313 1 15.022200 0.469189 0.659617
6259 313 1 15.992200 0.474465 0.663476
6260 313 1 16.962200 0.455331 0.811465
6261 314 1 -3.292178 8.079522 -5.949044
6262 314 1 -2.322178 8.155081 -5.936185
6263 314 1 -1.352178 8.158105 -6.030606
6264 314 1 -0.382178 8.238681 -6.081344
6265 314 1 0.587822 8.248584 -6.114393
6266 314 1 1.557822 8.125815 -5.923046
6267 314 1 2.527822 8.083240 -5.986902
6268 314 1 3.497822 8.177232 -5.991219
6269 314 1 4.467822 8.069161 -6.009407
6270 314 1 5.437822 8.242421 -6.076988
6271 314 1 6.407822 8.106633 -6.098206
6272 314 1 7.377822 8.061433 -6.076072
6273 314 1 8.347822 8.215281 -6.083095
6274 314 1 9.317822 8.131062 -6.063933
6275 314 1 10.287822 8.118691 -5.973599
6276 314 1 11.257822 8.188380 -5.926546
6277 314 1 12.227822 8.099713 -5.924609
6278 314 1 13.197822 8.202219 -5.963389
6279 314 1 14.167822 8.080805 -5.941728
6280 314 1 15.137822 8.128136 -6.026917
6281 315 1 -4.302761 6.786613 -7.557961
6282 315 1 -3.332761 6.707858 -7.435697
6283 315 1 -2.362761 6.814664 -7.508188
6284 315 1 -1.392761 6.751365 -7.460120
6285 315 1 -0.422761 6.882513 -7.511123
6286 315 1 0.547239 6.764443 -7.570639
6287 315 1 1.517239 6.804442 -7.508025
6288 315 1 2.487239 6.740737 -7.612601
6289 315 1 3.457239 6.724804 -7.535752
6290 315 1 4.427239 6.696006 -7.534049
6291 315 1 5.397239 6.860179 -7.521256
6292 315 1 6.367239 6.691942 -7.420495
6293 315 1 7.337239 6.738050 -7.608991
6294 315 1 8.307239 6.799013 -7.521375
6295 315 1 9.277239 6.814562 -7.502487
6296 315 1 10.247239 6.872979 -7.559008
6297 315 1 11.217239 6.750599 -7.487430
6298 315 1 12.187239 6.741206 -7.545464
6299 315 1 13.157239 6.825935 -7.445225
6300 315 1 14.127239 6.769712 -7.553023
6301 316 1 0.818697 -4.691311 0.673457
6302 316 1 1.788697 -4.680104 0.746057
6303 316 1 2.758697 -4.833833 0.767781
6304 316 1 3.728697 -4.795569 0.827178
6305 316 1 4.698697 -4.834174 0.781565
6306 316 1 5.668697 -4.835401 0.657566
6307 316 1 6.638697 -4.774308 0.736965
6308 316 1 7.608697 -4.848618 0.770090
6309 316 1 8.578697 -4.857159 0.825731
6310 316 1 9.548697 -4.685532 0.727803
6311 316 1 10.518697 -4.804132 0.755710
6312 316 1 11.488697 -4.789178 0.701326
6313 316 1 12.458697 -4.827251 0.754495
6314 316 1 13.428697 -4.731006 0.657675
6315 316 1 14.398697 -4.771922 0.809095
6316 316 1 15.368697 -4.779146 0.656054
6317 316 1 16.338697 -4.753616 0.722785
6318 316 1 17.308697 -4.816013 0.788122
6319 316 1 18.278697 -4.843029 0.712443
6320 316 1 19.248697 -4.803143 0.795900
6321 317 1 7.200549 -4.864772 -0.038913
6322 317 1 8.170549 -4.901958 0.066654
6323 317 1 9.140549 -4.887172 0.006635
6324 317 1 10.110549 -4.818414 -0.125539
6325 317 1 11.080549 -4.799794 -0.115352
6326 317 1 12.050549 -4.975496 -0.069183
6327 317 1 13.020549 -4.970517 -0.018256
6328 317 1 13.990549 -4.914103 -0.009501
6329 317 1 14.960549 -4.909636 -0.081939
6330 317 1 15.930549 -4.892926 -0.026050
6331 317 1 16.900549 -4.791341 -0.106062
6332 317 1 17.870549 -4.804540 0.034489
6333 317 1 18.840549 -4.859071 0.010858
6334 317 1 19.810549 -4.922840 -0.007253
6335 317 1 20.780549 -4.850083 -0.072573
6336 317 1 21.750549 -4.846620 -0.032188
6337 317 1 22.720549 -4.913193 -0.036776
6338 317 1 23.690549 -4.872339 -0.085287
6339 317 1 24.660549 -4.802638 -0.040410
6340 317 1 25.630549 -4.878356 0.022983
6341 318 1 -7.308186 4.083901 4.540338
6342 318 1 -6.338186 4.023233 4.615888
6343 318 1 -5.368186 3.977116 4.554538
6344 318 1 -4.398186 4.068100 4.644334
6345 318 1 -3.428186 3.946529 4.597158
6346 318 1 -2.458186 4.111195 4.591935
6347 318 1 -1.488186 4.089668 4.535474
6348 318 1 -0.518186 3.936452 4.654483
6349 318 1 0.451814 4.068424 4.625841
6350 318 1 1.421814 4.121652 4.493704
6351 318 1 2.391814 3.993534 4.564829
6352 318 1 3.361814 3.942783 4.490955
6353 318 1 4.331814 3.971399 4.507852
6354 318 1 5.301814 4.065906 4.480616
6355 318 1 6.271814 3.985607 4.530366
6356 318 1 7.241814 3.985499 4.518770
6357 318 1 8.211814 4.076385 4.466328
6358 318 1 9.181814 4.122299 4.557383
6359 318 1 10.151814 4.096556 4.590705
6360 318 1 11.121814 3.934780 4.542114
6361 319 1 8.694085 0.674136 -2.713357
6362 319 1 9.664085 0.782824 -2.580754
6363 319 1 10.634085 0.720627 -2.577495
6364 319 1 11.604085 0.615966 -2.609055
6365 319 1 12.574085 0.654739 -2.699283
6366 319 1 13.544085 0.720619 -2.596978
6367 319 1 14.514085 0.714866 -2.725450
6368 319 1 15.484085 0.719048 -2.576055
6369 319 1 16.454085 0.687665 -2.641113
6370 319 1 17.424085 0.776300 -2.694485
6371 319 1 18.394085 0.621843 -2.567484
6372 319 1 19.364085 0.675870 -2.606457
6373 319 1 20.334085 0.794219 -2.589375
6374 319 1 21.304085 0.735650 -2.671588
6375 319 1 22.274085 0.631692 -2.710370
6376 319 1 23.244085 0.685819 -2.587077
6377 319 1 24.214085 0.743833 -2.699271
6378 319 1 25.184085 0.791257 -2.659115
6379 319 1 26.154085 0.691659 -2.737426
6380 319 1 27.124085 0.704263 -2.649324
6381 320 1 3.128425 -1.749494 6.297358
6382 320 1 4.098425 -1.767622 6.449531
6383 320 1 5.068425 -1.753895 6.458712
6384 320 1 6.038425 -1.850103 6.296632
6385 320 1 7.008425 -1.746427 6.439897
6386 320 1 7.978425 -1.926068 6.463396
6387 320 1 8.948425 -1.941837 6.379936
6388 320 1 9.918425 -1.937616 6.326221
6389 320 1 10.888425 -1.834439 6.380674
6390 320 1 11.858425 -1.776421 6.315246
6391 320 1 12.828425 -1.788085 6.439344
6392 320 1 13.798425 -1.760926 6.323643
6393 320 1 14.768425 -1.776367 6.362240
6394 320 1 15.738425 -1.920151 6.385078
6395 320 1 16.708425 -1.856273 6.289227
6396 320 1 17.678425 -1.897701 6.434610
6397 320 1 18.648425 -1.865082 6.276552
6398 320 1 19.618425 -1.819797 6.319560
6399 320 1 20.588425 -1.910256 6.316268
6400 320 1 21.558425 -1.849781 6.295795
6401 321 1 7.133042 0.622165 0.643401
6402 321 1 8.103042 0.683173 0.508436
6403 321 1 9.073042 0.637649 0.650501
6404 321 1 10.043042 0.562325 0.577997
6405 321 1 11.013042 0.673438 0.641182
6406 321 1 11.983042 0.551905 0.538259
6407 321 1 12.953042 0.570690 0.595276
6408 321 1 13.923042 0.591211 0.570714
6409 321 1 14.893042 0.576651 0.569009
6410 321 1 15.863042 0.571804 0.554535
6411 321 1 16.833042 0.569227 0.679522
6412 321 1 17.803042 0.679185 0.579113
6413 321 1 18.773042 0.685358 0.668583
6414 321 1 19.743042 0.714821 0.649905
6415 321 1 20.713042 0.699754 0.572047
6416 321 1 21.683042 0.670467 0.673907
6417 321 1 22.653042 0.673803 0.689177
6418 321 1 23.623042 0.658253 0.529656
6419 321 1 24.593042 0.541538 0.678709
6420 321 1 25.563042 0.552533 0.580784
6421 322 1 -8.323633 7.284499 6.091542
6422 322 1 -7.353633 7.289174 6.061569
6423 322 1 -6.383633 7.299201 6.022762
6424 322 1 -5.413633 7.292787 6.045012
6425 322 1 -4.443633 7.285523 6.154388
6426 322 1 -3.473633 7.196944 5.958909
6427 322 1 -2.503633 7.297852 5.962609
6428 322 1 -1.533633 7.164208 6.062971
6429 322 1 -0.563633 7.196563 6.010665
6430 322 1 0.406367 7.317530 6.111140
6431 322 1 1.376367 7.221496 6.102538
6432 322 1 2.346367 7.287217 6.033892
6433 322 1 3.316367 7.244050 6.055403
6434 322 1 4.286367 7.219465 6.042038
6435 322 1 5.256367 7.340979 6.022426
6436 322 1 6.226367 7.241296 6.156825
6437 322 1 7.196367 7.183932 6.054837
6438 322 1 8.166367 7.254797 6.064209
6439 322 1 9.136367 7.210112 6.062055
6440 322 1 10.106367 7.185096 6.131062
6441 323 1 -5.821488 -6.067604 -2.305989
6442 323 1 -4.851488 -6.057477 -2.456772
6443 323 1 -3.881488 -6.086291 -2.342422
6444 323 1 -2.911488 -5.996510 -2.462693
6445 323 1 -1.941488 -6.043084 -2.402469
6446 323 1 -0.971488 -6.047535 -2.326990
6447 323 1 -0.001488 -6.162851 -2.377416
6448 323 1 0.968512 -6.180922 -2.377036
6449 323 1 1.938512 -6.068705 -2.441343
6450 323 1 2.908512 -6.018247 -2.278629
6451 323 1 3.878512 -6.048649 -2.291255
6452 323 1 4.848512 -6.079286 -2.426129
6453 323 1 5.818512 -6.102809 -2.365267
6454 323 1 6.788512 -6.043935 -2.332651
6455 323 1 7.758512 -6.020298 -2.362561
6456 323 1 8.728512 -5.986764 -2.300182
6457 323 1 9.698512 -6.120603 -2.377341
6458 323 1 10.668512 -6.019828 -2.451599
6459 323 1 11.638512 -6.094597 -2.355086
6460 323 1 12.608512 -6.156576 -2.452797
6461 324 1 6.873217 -3.512626 -3.926057
6462 324 1 7.843217 -3.621742 -3.931774
6463 324 1 8.813217 -3.575643 -3.986893
6464 324 1 9.783217 -3.541842 -3.898477
6465 324 1 10.753217 -3.650554 -3.967791
6466 324 1 11.723217 -3.560458 -3.946003
6467 324 1 12.693217 -3.564335 -3.880211
6468 324 1 13.663217 -3.564040 -3.824487
6469 324 1 14.633217 -3.651161 -3.936362
6470 324 1 15.603217 -3.639623 -3.977266
6471 324 1 16.573217 -3.683650 -3.946040
6472 324 1 17.543217 -3.509042 -3.985102
6473 324 1 18.513217 -3.636990 -4.004612
6474 324 1 19.483217 -3.575656 -3.938989
6475 324 1 20.453217 -3.593293 -3.957881
6476 324 1 21.423217 -3.624611 -3.925190
6477 324 1 22.393217 -3.609583 -3.917447
6478 324 1 23.363217 -3.617972 -3.856117
6479 324 1 24.333217 -3.572457 -3.847109
6480 324 1 25.303217 -3.576197 -3.847058
6481 325 1 5.474590 8.789178 8.643908
6482 325 1 6.444590 8.918423 8.682361
6483 325 1 7.414590 8.945633 8.512336
6484 325 1 8.384590 8.812144 8.643128
6485 325 1 9.354590 8.794919 8.613649
6486 325 1 10.324590 8.785300 8.621941
6487 325 1 11.294590 8.910300 8.492450
6488 325 1 12.264590 8.768359 8.577551
6489 325 1 13.234590 8.802654 8.528501
6490 325 1 14.204590 8.859771 8.496552
6491 325 1 15.174590 8.920955 8.518000
6492 325 1 16.144590 8.781275 8.495674
6493 325 1 17.114590 8.925392 8.531467
6494 325 1 18.084590 8.947833 8.620829
6495 325 1 19.054590 8.836825 8.603079
6496 325 1 20.024590 8.884766 8.566554
6497 325 1 20.994590 8.843844 8.617730
6498 325 1 21.964590 8.878014 8.513212
6499 325 1 22.934590 8.762722 8.636718
6500 325 1 23.904590 8.891901 8.634984
6501 326 1 5.253914 7.740338 9.589326
6502 326 1 6.223914 7.705890 9.754177
6503 326 1 7.193914 7.663137 9.741894
6504 326 1 8.163914 7.678354 9.633708
6505 326 1 9.133914 7.625236 9.759715
6506 326 1 10.103914 7.650763 9.685335
6507 326 1 11.073914 7.729872 9.664365
6508 326 1 12.043914 7.688340 9.649976
6509 326 1 13.013914 7.714743 9.646001
6510 326 1 13.983914 7.724579 9.651660
6511 326 1 14.953914 7.720880 9.753396
6512 326 1 15.923914 7.798294 9.581864
6513 326 1 16.893914 7.715550 9.645054
6514 326 1 17.863914 7.799328 9.625878
6515 326 1 18.833914 7.738164 9.668012
6516 326 1 19.803914 7.706390 9.644254
6517 326 1 20.773914 7.746623 9.676889
6518 326 1 21.743914 7.747540 9.604554
6519 326 1 22.713914 7.758149 9.637519
6520 326 1 23.683914 7.610626 9.666729
6521 327 1 -2.582933 2.107296 3.706326
6522 327 1 -1.612933 2.045910 3.524504
6523 327 1 -0.642933 2.062172 3.564358
6524 327 1 0.327067 2.060258 3.706355
6525 327 1 1.297067 1.936256 3.609832
6526 327 1 2.267067 2.072955 3.699502
6527 327 1 3.237067 1.943057 3.604146
6528 327 1 4.207067 2.100582 3.597578
6529 327 1 5.177067 2.011055 3.661599
6530 327 1 6.147067 2.005288 3.586179
6531 327 1 7.117067 1.992374 3.694971
6532 327 1 8.087067 2.023989 3.620603
6533 327 1 9.057067 2.059586 3.579545
6534 327 1 10.027067 1.978839 3.546396
6535 327 1 10.997067 2.122027 3.658455
6536 327 1 11.967067 1.932991 3.688163
6537 327 1 12.937067 1.996111 3.698429
6538 327 1 13.907067 2.061427 3.538830
6539 327 1 14.877067 2.048092 3.570358
6540 327 1 15.847067 1.932103 3.618384
6541 328 1 3.195797 -5.285050 6.613462
6542 328 1 4.165797 -5.380308 6.771034
6543 328 1 5.135797 -5.408710 6.730813
6544 328 1 6.105797 -5.404159 6.723491
6545 328 1 7.075797 -5.323233 6.731669
6546 328 1 8.045797 -5.285805 6.723121
6547 328 1 9.015797 -5.285757 6.747430
6548 328 1 9.985797 -5.306422 6.640415
6549 328 1 10.955797 -5.300255 6.629328
6550 328 1 11.925797 -5.434655 6.798870
6551 328 1 12.895797 -5.370187 6.650352
6552 328 1 13.865797 -5.426211 6.794403
6553 328 1 14.835797 -5.245476 6.716942
6554 328 1 15.805797 -5.344704 6.729149
6555 328 1 16.775797 -5.272730 6.654394
6556 328 1 17.745797 -5.419327 6.707031
6557 328 1 18.715797 -5.310104 6.678214
6558 328 1 19.685797 -5.354071 6.696805
6559 328 1 20.655797 -5.340219 6.733237
6560 328 1 21.625797 -5.432629 6.704149
6561 329 1 -6.774921 2.937852 -6.804855
6562 329 1 -5.804921 2.804896 -6.799881
6563 329 1 -4.834921 2.907872 -6.800187
6564 329 1 -3.864921 2.812982 -6.845022
6565 329 1 -2.894921 2.920837 -6.780130
6566 329 1 -1.924921 2.873749 -6.765256
6567 329 1 -0.954921 2.893784 -6.836808
6568 329 1 0.015079 2.774162 -6.676978
6569 329 1 0.985079 2.933021 -6.825379
6570 329 1 1.955079 2.842206 -6.708489
6571 329 1 2.925079 2.853273 -6.748631
6572 329 1 3.895079 2.956803 -6.819601
6573 329 1 4.865079 2.877422 -6.829458
6574 329 1 5.835079 2.875822 -6.830974
6575 329 1 6.805079 2.907238 -6.701827
6576 329 1 7.775079 2.814512 -6.811230
6577 329 1 8.745079 2.849740 -6.790028
6578 329 1 9.715079 2.802642 -6.682001
6579 329 1 10.685079 2.879243 -6.696319
6580 329 1 11.655079 2.892830 -6.807871
6581 330 1 -0.229000 6.226535 2.671609
6582 330 1 0.741000 6.149486 2.639325
6583 330 1 1.711000 6.242940 2.576914
6584 330 1 2.681000 6.308823 2.673561
6585 330 1 3.651000 6.229875 2.720459
6586 330 1 4.621000 6.204350 2.669943
6587 330 1 5.591000 6.309868 2.707837
6588 330 1 6.561000 6.294052 2.719746
6589 330 1 7.531000 6.248224 2.567350
6590 330 1 8.501000 6.239009 2.715842
6591 330 1 9.471000 6.310888 2.730358
6592 330 1 10.441000 6.251778 2.693797
6593 330 1 11.411000 6.261149 2.656867
6594 330 1 12.381000 6.272780 2.678720
6595 330 1 13.351000 6.282804 2.639496
6596 330 1 14.321000 6.199350 2.664746
6597 330 1 15.291000 6.225691 2.646877
6598 330 1 16.261000 6.219808 2.631163
6599 330 1 17.231000 6.270469 2.756362
6600 330 1 18.201000 6.160181 2.570251
6601 331 1 3.806961 -4.298740 -7.541154
6602 331 1 4.776961 -4.318874 -7.627047
6603 331 1 5.746961 -4.410251 -7.617361
6604 331 1 6.716961 -4.392021 -7.568906
6605 331 1 7.686961 -4.352666 -7.581673
6606 331 1 8.656961 -4.300612 -7.555100
6607 331 1 9.626961 -4.315625 -7.629548
6608 331 1 10.596961 -4.391711 -7.514511
6609 331 1 11.566961 -4.261270 -7.628527
6610 331 1 12.536961 -4.397586 -7.458050
6611 331 1 13.506961 -4.398179 -7.630683
6612 331 1 14.476961 -4.353544 -7.607797
6613 331 1 15.446961 -4.335749 -7.530065
6614 331 1 16.416961 -4.278074 -7.559094
6615 331 1 17.386961 -4.351177 -7.475916
6616 331 1 18.356961 -4.407275 -7.512722
6617 331 1 19.326961 -4.251667 -7.473787
6618 331 1 20.296961 -4.363336 -7.538142
6619 331 1 21.266961 -4.375543 -7.651886
6620 331 1 22.236961 -4.330701 -7.602921
6621 332 1 -7.415508 8.779772 -5.285220
6622 332 1 -6.445508 8.939926 -5.371971
6623 332 1 -5.475508 8.806101 -5.261843
6624 332 1 -4.505508 8.829147 -5.257535
6625 332 1 -3.535508 8.890907 -5.255320
6626 332 1 -2.565508 8.800549 -5.266242
6627 332 1 -1.595508 8.826263 -5.415642
6628 332 1 -0.625508 8.809170 -5.262787
6629 332 1 0.344492 8.801238 -5.353067
6630 332 1 1.314492 8.946260 -5.335922
6631 332 1 2.284492 8.947345 -5.388700
6632 332 1 3.254492 8.858694 -5.287495
6633 332 1 4.224492 8.922499 -5.312858
6634 332 1 5.194492 8.812668 -5.377558
6635 332 1 6.164492 8.827778 -5.326517
6636 332 1 7.134492 8.783805 -5.383876
6637 332 1 8.104492 8.865352 -5.256726
6638 332 1 9.074492 8.868839 -5.425575
6639 332 1 10.044492 8.851934 -5.275652
6640 332 1 11.014492 8.880632 -5.256427
6641 333 1 -7.795123 9.369549 -2.160324
6642 333 1 -6.825123 9.341005 -2.122125
6643 333 1 -5.855123 9.442011 -2.081407
6644 333 1 -4.885123 9.370526 -2.027341
6645 333 1 -3.915123 9.392450 -2.038972
6646 333 1 -2.945123 9.381386 -2.051834
6647 333 1 -1.975123 9.360594 -2.100112
6648 333 1 -1.005123 9.405917 -2.142886
6649 333 1 -0.035123 9.357558 -2.114224
6650 333 1 0.934877 9.467880 -2.181036
6651 333 1 1.904877 9.358588 -2.088891
6652 333 1 2.874877 9.397381 -2.189203
6653 333 1 3.844877 9.346189 -2.182297
6654 333 1 4.814877 9.519694 -2.194697
6655 333 1 5.784877 9.536554 -2.165739
6656 333 1 6.754877 9.537463 -2.178011
6657 333 1 7.724877 9.408454 -2.181726
6658 333 1 8.694877 9.463388 -2.159741
6659 333 1 9.664877 9.528278 -2.139928
6660 333 1 10.634877 9.439643 -2.044428
6661 334 1 -7.108109 9.645540 5.079431
6662 334 1 -6.138109 9.613579 5.109650
6663 334 1 -5.168109 9.542567 5.124671
6664 334 1 -4.198109 9.567060 5.107033
6665 334 1 -3.228109 9.614533 5.023894
6666 334 1 -2.258109 9.529479 5.167626
6667 334 1 -1.288109 9.532342 5.135737
6668 334 1 -0.318109 9.561944 5.039209
6669 334 1 0.651891 9.638695 5.153728
6670 334 1 1.621891 9.480165 5.057835
6671 334 1 2.591891 9.638855 5.161859
6672 334 1 3.561891 9.577128 5.134966
6673 334 1 4.531891 9.474139 5.170838
6674 334 1 5.501891 9.586794 5.158382
6675 334 1 6.471891 9.637027 5.202349
6676 334 1 7.441891 9.539120 5.082203
6677 334 1 8.411891 9.482823 5.112008
6678 334 1 9.381891 9.477283 5.180067
6679 334 1 10.351891 9.568570 5.178059
6680 334 1 11.321891 9.546644 5.022213
6681 335 1 -7.045547 -2.308959 6.221989
6682 335 1 -6.075547 -2.371013 6.275243
6683 335 1 -5.105547 -2.249382 6.180885
6684 335 1 -4.135547 -2.290769 6.251856
6685 335 1 -3.165547 -2.308218 6.138829
6686 335 1 -2.195547 -2.279958 6.183510
6687 335 1 -1.225547 -2.413374 6.231055
6688 335 1 -0.255547 -2.308936 6.303302
6689 335 1 0.714453 -2.233592 6.236554
6690 335 1 1.684453 -2.229635 6.188891
6691 335 1 2.654453 -2.243606 6.110683
6692 335 1 3.624453 -2.371779 6.143699
6693 335 1 4.594453 -2.329525 6.222846
6694 335 1 5.564453 -2.362936 6.248022
6695 335 1 6.534453 -2.284494 6.123960
6696 335 1 7.504453 -2.361600 6.220566
6697 335 1 8.474453 -2.379999 6.257745
6698 335 1 9.444453 -2.381115 6.282679
6699 335 1 10.414453 -2.389353 6.292649
6700 335 1 11.384453 -2.418675 6.236347
6701 336 1 0.656360 2.744779 4.245104
6702 336 1 1.626360 2.607702 4.369816
6703 336 1 2.596360 2.705439 4.405243
6704 336 1 3.566360 2.606336 4.372772
6705 336 1 4.536360 2.596317 4.333654
6706 336 1 5.506360 2.606736 4.328830
6707 336 1 6.476360 2.722616 4.296931
6708 336 1 7.446360 2.600407 4.429335
6709 336 1 8.416360 2.704931 4.442778
6710 336 1 9.386360 2.731543 4.384788
6711 336 1 10.356360 2.729819 4.245038
6712 336 1 11.326360 2.599139 4.420781
6713 336 1 12.296360 2.606785 4.377945
6714 336 1 13.266360 2.598825 4.293147
6715 336 1 14.236360 2.686023 4.311233
6716 336 1 15.206360 2.745927 4.321893
6717 336 1 16.176360 2.584774 4.436327
6718 336 1 17.146360 2.771459 4.304719
6719 336 1 18.116360 2.726661 4.424000
6720 336 1 19.086360 2.589896 4.314478
6721 337 1 8.472589 -3.412444 5.475654
6722 337 1 9.442589 -3.312770 5.638897
6723 337 1 10.412589 -3.434200 5.581926
6724 337 1 11.382589 -3.253677 5.487299
6725 337 1 12.352589 -3.426534 5.530203
6726 337 1 13.322589 -3.350774 5.588668
6727 337 1 14.292589 -3.381567 5.504738
6728 337 1 15.262589 -3.351020 5.522433
6729 337 1 16.232589 -3.411366 5.474104
6730 337 1 17.202589 -3.272502 5.561853
6731 337 1 18.172589 -3.326937 5.514131
6732 337 1 19.142589 -3.317475 5.620559
6733 337 1 20.112589 -3.312423 5.504785
6734 337 1 21.082589 -3.344036 5.572144
6735 337 1 22.052589 -3.318712 5.455876
6736 337 1 23.022589 -3.380393 5.525146
6737 337 1 23.992589 -3.398748 5.553817
6738 337 1 24.962589 -3.416401 5.467567
6739 337 1 25.932589 -3.295060 5.480411
6740 337 1 26.902589 -3.287389 5.550243
6741 338 1 0.277261 -6.184188 -6.949872
6742 338 1 1.247261 -6.027487 -6.918398
6743 338 1 2.217261 -6.211068 -6.980335
6744 338 1 3.187261 -6.116131 -6.947820
6745 338 1 4.157261 -6.058000 -6.880086
6746 338 1 5.127261 -6.122063 -6.891393
6747 338 1 6.097261 -6.019444 -6.813311
6748 338 1 7.067261 -6.126446 -6.943649
6749 338 1 8.037261 -6.128614 -6.798327
6750 338 1 9.007261 -6.106567 -6.831334
6751 338 1 9.977261 -6.040897 -6.978741
6752 338 1 10.947261 -6.030950 -6.791470
6753 338 1 11.917261 -6.060887 -6.944436
6754 338 1 12.887261 -6.056860 -6.865682
6755 338 1 13.857261 -6.196771 -6.984316
6756 338 1 14.827261 -6.101037 -6.925557
6757 338 1 15.797261 -6.081584 -6.928574
6758 338 1 16.767261 -6.116323 -6.806321
6759 338 1 17.737261 -6.211101 -6.871154
6760 338 1 18.707261 -6.133297 -6.969665
6761 339 1 -8.693310 5.202803 -4.170324
6762 339 1 -7.723310 5.239945 -4.121603
6763 339 1 -6.753310 5.261855 -4.179581
6764 339 1 -5.783310 5.140363 -4.172265
6765 339 1 -4.813310 5.175396 -4.236309
6766 339 1 -3.843310 5.111698 -4.146765
6767 339 1 -2.873310 5.121594 -4.198639
6768 339 1 -1.903310 5.107997 -4.240251
6769 339 1 -0.933310 5.265819 -4.292794
6770 339 1 0.036690 5.152681 -4.190273
6771 339 1 1.006690 5.186138 -4.295552
6772 339 1 1.976690 5.141972 -4.192089
6773 339 1 2.946690 5.248756 -4.274658
6774 339 1 3.916690 5.133330 -4.192446
6775 339 1 4.886690 5.110573 -4.314051
6776 339 1 5.856690 5.090512 -4.198059
6777 339 1 6.826690 5.251157 -4.185845
6778 339 1 7.796690 5.244995 -4.303148
6779 339 1 8.766690 5.261831 -4.200759
6780 339 1 9.736690 5.196204 -4.250782
6781 340 1 6.240185 -8.095427 1.582860
6782 340 1 7.210185 -8.027753 1.548315
6783 340 1 8.180185 -7.936509 1.585653
6784 340 1 9.150185 -8.018735 1.582441
6785 340 1 10.120185 -8.053795 1.577491
6786 340 1 11.090185 -8.055943 1.539193
6787 340 1 12.060185 -7.976630 1.545419
6788 340 1 13.030185 -7.991293 1.616410
6789 340 1 14.000185 -7.938409 1.572267
6790 340 1 14.970185 -8.078431 1.598461
6791 340 1 15.940185 -8.027505 1.610213
6792 340 1 16.910185 -8.086328 1.532482
6793 340 1 17.880185 -7.960039 1.591909
6794 340 1 18.850185 -7.947603 1.580748
6795 340 1 19.820185 -7.905061 1.464050
6796 340 1 20.790185 -8.017435 1.449347
6797 340 1 21.760185 -8.046585 1.603910
6798 340 1 22.730185 -7.946587 1.472121
6799 340 1 23.700185 -7.998924 1.530038
6800 340 1 24.670185 -7.967177 1.581079
6801 341 1 -8.507908 9.374429 -4.840940
6802 341 1 -7.537908 9.400199 -4.784716
6803 341 1 -6.567908 9.443400 -4.670856
6804 341 1 -5.597908 9.503025 -4.691392
6805 341 1 -4.627908 9.492076 -4.653385
6806 341 1 -3.657908 9.484006 -4.658806
6807 341 1 -2.687908 9.398934 -4.823787
6808 341 1 -1.717908 9.494745 -4.724501
6809 341 1 -0.747908 9.338793 -4.769892
6810 341 1 0.222092 9.347411 -4.834604
6811 341 1 1.192092 9.386791 -4.702240
6812 341 1 2.162092 9.431382 -4.670658
6813 341 1 3.132092 9.462394 -4.755695
6814 341 1 4.102092 9.474020 -4.750029
6815 341 1 5.072092 9.520108 -4.835499
6816 341 1 6.042092 9.364945 -4.674227
6817 341 1 7.012092 9.412773 -4.657157
6818 341 1 7.982092 9.535433 -4.775942
6819 341 1 8.952092 9.401908 -4.719759
6820 341 1 9.922092 9.497000 -4.789898
6821 342 1 3.021230 9.563486 -8.717848
6822 342 1 3.991230 9.617826 -8.700253
6823 342 1 4.961230 9.658239 -8.783902
6824 342 1 5.931230 9.479386 -8.691197
6825 342 1 6.901230 9.488119 -8.665685
6826 342 1 7.871230 9.515580 -8.797016
6827 342 1 8.841230 9.569326 -8.652835
6828 342 1 9.811230 9.655373 -8.740197
6829 342 1 10.781230 9.507521 -8.657153
6830 342 1 11.751230 9.593772 -8.698473
6831 342 1 12.721230 9.607629 -8.723495
6832 342 1 13.691230 9.465207 -8.607970
6833 342 1 14.661230 9.529444 -8.681425
6834 342 1 15.631230 9.524102 -8.661224
6835 342 1 16.601230 9.497604 -8.697587
6836 342 1 17.571230 9.618985 -8.612734
6837 342 1 18.541230 9.541457 -8.665740
6838 342 1 19.511230 9.555951 -8.635704
6839 342 1 20.481230 9.530157 -8.663150
6840 342 1 21.451230 9.474683 -8.753780
6841 343 1 3.362290 4.665439 9.905391
6842 343 1 4.332290 4.610853 9.898125
6843 343 1 5.302290 4.622702 9.937073
6844 343 1 6.272290 4.632911 9.915999
6845 343 1 7.242290 4.633764 9.895430
6846 343 1 8.212290 4.744352 10.007214
6847 343 1 9.182290 4.681920 10.067233
6848 343 1 10.152290 4.738566 9.996808
6849 343 1 11.122290 4.652557 9.992107
6850 343 1 12.092290 4.700270 10.017067
6851 343 1 13.062290 4.711598 9.993928
6852 343 1 14.032290 4.744796 9.932198
6853 343 1 15.002290 4.746134 9.958906
6854 343 1 15.972290 4.660521 9.922539
6855 343 1 16.942290 4.747219 10.011478
6856 343 1 17.912290 4.574739 9.868697
6857 343 1 18.882290 4.620825 9.874853
6858 343 1 19.852290 4.574343 9.966128
6859 343 1 20.822290 4.566856 10.020189
6860 343 1 21.792290 4.563323 9.914116
6861 344 1 -1.362216 -6.451499 -6.179227
6862 344 1 -0.392216 -6.329633 -6.061502
6863 344 1 0.577784 -6.389159 -6.075726
6864 344 1 1.547784 -6.456306 -6.142109
6865 344 1 2.517784 -6.489700 -6.058816
6866 344 1 3.487784 -6.339903 -6.125640
6867 344 1 4.457784 -6.456868 -6.080171
6868 344 1 5.427784 -6.411879 -6.055942
6869 344 1 6.397784 -6.377668 -6.086776
6870 344 1 7.367784 -6.402050 -6.171058
6871 344 1 8.337784 -6.399796 -6.089680
6872 344 1 9.307784 -6.328976 -6.129997
6873 344 1 10.277784 -6.481044 -6.025584
6874 344 1 11.247784 -6.422318 -6.090037
6875 344 1 12.217784 -6.405205 -6.054026
6876 344 1 13.187784 -6.507395 -5.999715
6877 344 1 14.157784 -6.449604 -6.095962
6878 344 1 15.127784 -6.334831 -6.160930
6879 344 1 16.097784 -6.486545 -5.985115
6880 344 1 17.067784 -6.345370 -5.987416
6881 345 1 3.571917 -0.870502 -5.445254
6882 345 1 4.541917 -0.734595 -5.459842
6883 345 1 5.511917 -0.814766 -5.449168
6884 345 1 6.481917 -0.794657 -5.423394
6885 345 1 7.451917 -0.856923 -5.458406
6886 345 1 8.421917 -0.901212 -5.441183
6887 345 1 9.391917 -0.791457 -5.321989
6888 345 1 10.361917 -0.846409 -5.389090
6889 345 1 11.331917 -0.891547 -5.408404
6890 345 1 12.301917 -0.736749 -5.324019
6891 345 1 13.271917 -0.841712 -5.323467
6892 345 1 14.241917 -0.833478 -5.445430
6893 345 1 15.211917 -0.765487 -5.425060
6894 345 1 16.181917 -0.890674 -5.389410
6895 345 1 17.151917 -0.774534 -5.471707
6896 345 1 18.121917 -0.892729 -5.351861
6897 345 1 19.091917 -0.818268 -5.357438
6898 345 1 20.061917 -0.829181 -5.448421
6899 345 1 21.031917 -0.820612 -5.471928
6900 345 1 22.001917 -0.767313 -5.436598
6901 346 1 7.580889 6.778778 6.647015
6902 346 1 8.550889 6.713757 6.519751
6903 346 1 9.520889 6.745125 6.513921
6904 346 1 10.490889 6.636552 6.527859
6905 346 1 11.460889 6.626967 6.620108
6906 346 1 12.430889 6.732904 6.641137
6907 346 1 13.400889 6.725894 6.504495
6908 346 1 14.370889 6.621052 6.557220
6909 346 1 15.340889 6.623189 6.475348
6910 346 1 16.310889 6.647065 6.465572
6911 346 1 17.280889 6.636809 6.590186
6912 346 1 18.250889 6.733078 6.589898
6913 346 1 19.220889 6.770860 6.542682
6914 346 1 20.190889 6.723194 6.514214
6915 346 1 21.160889 6.692840 6.565493
6916 346 1 22.130889 6.789119 6.633063
6917 346 1 23.100889 6.745320 6.560248
6918 346 1 24.070889 6.634958 6.550145
6919 346 1 25.040889 6.678236 6.457822
6920 346 1 26.010889 6.660824 6.466627
6921 347 1 0.413525 0.310308 8.246361
6922 347 1 1.383525 0.262728 8.284866
6923 347 1 2.353525 0.298962 8.261738
6924 347 1 3.323525 0.267507 8.289531
6925 347 1 4.293525 0.295428 8.345650
6926 347 1 5.263525 0.449819 8.369751
6927 347 1 6.233525 0.451358 8.414844
6928 347 1 7.203525 0.329075 8.411737
6929 347 1 8.173525 0.367554 8.239617
6930 347 1 9.143525 0.459812 8.407452
6931 347 1 10.113525 0.427905 8.330096
6932 347 1 11.083525 0.372387 8.299766
6933 347 1 12.053525 0.390946 8.325136
6934 347 1 13.023525 0.396458 8.256320
6935 347 1 13.993525 0.445586 8.234919
6936 347 1 14.963525 0.304476 8.245327
6937 347 1 15.933525 0.292029 8.304170
6938 347 1 16.903525 0.418417 8.402019
6939 347 1 17.873525 0.361946 8.387056
6940 347 1 18.843525 0.448484 8.247388
6941 348 1 1.071962 -7.347539 -4.017667
6942 348 1 2.041962 -7.424469 -3.947953
6943 348 1 3.011962 -7.425068 -3.992120
6944 348 1 3.981962 -7.460183 -3.974680
6945 348 1 4.951962 -7.335283 -3.905103
6946 348 1 5.921962 -7.343176 -4.097151
6947 348 1 6.891962 -7.293692 -3.975218
6948 348 1 7.861962 -7.373739 -3.914378
6949 348 1 8.831962 -7.279768 -4.041153
6950 348 1 9.801962 -7.319911 -4.033201
6951 348 1 10.771962 -7.277273 -4.078544
6952 348 1 11.741962 -7.306982 -4.045806
6953 348 1 12.711962 -7.338817 -3.932865
6954 348 1 13.681962 -7.458452 -3.999858
6955 348 1 14.651962 -7.269734 -3.922598
6956 348 1 15.621962 -7.295795 -4.026945
6957 348 1 16.591962 -7.323419 -3.914880
6958 348 1 17.561962 -7.365647 -3.993702
6959 348 1 18.531962 -7.374438 -4.001847
6960 348 1 19.501962 -7.267230 -3.949280
6961 349 1 4.002350 3.883981 -2.454072
6962 349 1 4.972350 3.775024 -2.319392
6963 349 1 5.942350 3.787051 -2.394824
6964 349 1 6.912350 3.880036 -2.394528
6965 349 1 7.882350 3.759266 -2.380288
6966 349 1 8.852350 3.858889 -2.412484
6967 349 1 9.822350 3.863374 -2.493595
6968 349 1 10.792350 3.880029 -2.411640
6969 349 1 11.762350 3.731860 -2.407269
6970 349 1 12.732350 3.752229 -2.470194
6971 349 1 13.702350 3.758820 -2.444325
6972 349 1 14.672350 3.719739 -2.413753
6973 349 1 15.642350 3.793145 -2.310324
6974 349 1 16.612350 3.760378 -2.406141
6975 349 1 17.582350 3.706750 -2.414255
6976 349 1 18.552350 3.766992 -2.431618
6977 349 1 19.522350 3.794644 -2.332374
6978 349 1 20.492350 3.766516 -2.375115
6979 349 1 21.462350 3.768891 -2.401661
6980 349 1 22.432350 3.796376 -2.385286
6981 350 1 -7.540733 4.917280 4.456154
6982 350 1 -6.570733 4.917199 4.438052
6983 350 1 -5.600733 4.996843 4.373518
6984 350 1 -4.630733 4.955850 4.435387
6985 350 1 -3.660733 4.904996 4.439921
6986 350 1 -2.690733 4.950549 4.528382
6987 350 1 -1.720733 5.062225 4.497266
6988 350 1 -0.750733 5.000567 4.453021
6989 350 1 0.219267 5.063711 4.480121
6990 350 1 1.189267 5.008485 4.443205
6991 350 1 2.159267 5.047567 4.473173
6992 350 1 3.129267 5.026371 4.518654
6993 350 1 4.099267 5.067955 4.516025
6994 350 1 5.069267 5.071339 4.542069
6995 350 1 6.039267 4.920854 4.384799
6996 350 1 7.009267 4.951413 4.403860
6997 350 1 7.979267 4.986616 4.388438
6998 350 1 8.949267 4.907999 4.551489
6999 350 1 9.919267 5.032746 4.486029
7000 350 1 10.889267 5.039235 4.469600
7001 351 1 -9.038107 -1.768833 2.640278
7002 351 1 -8.068107 -1.680460 2.589705
7003 351 1 -7.098107 -1.730707 2.601943
7004 351 1 -6.128107 -1.809104 2.532729
7005 351 1 -5.158107 -1.855129 2.709099
7006 351 1 -4.188107 -1.810577 2.582319
7007 351 1 -3.218107 -1.726674 2.555579
7008 351 1 -2.248107 -1.802416 2.602639
7009 351 1 -1.278107 -1.784173 2.667467
7010 351 1 -0.308107 -1.770654 2.549515
7011 351 1 0.661893 -1.752879 2.537118
7012 351 1 1.631893 -1.812555 2.675598
7013 351 1 2.601893 -1.735783 2.569781
7014 351 1 3.571893 -1.746707 2.718982
7015 351 1 4.541893 -1.793012 2.552838
7016 351 1 5.511893 -1.748069 2.696498
7017 351 1 6.481893 -1.796893 2.718405
7018 351 1 7.451893 -1.787604 2.625653
7019 351 1 8.421893 -1.846096 2.721145
7020 351 1 9.391893 -1.822657 2.599019
7021 352 1 8.651110 1.384967 -1.371900
7022 352 1 9.621110 1.399076 -1.465054
7023 352 1 10.591110 1.378307 -1.307797
7024 352 1 11.561110 1.428944 -1.276193
7025 352 1 12.531110 1.341568 -1.329145
7026 352 1 13.501110 1.502571 -1.285828
7027 352 1 14.471110 1.399739 -1.371750
7028 352 1 15.441110 1.396568 -1.408743
7029 352 1 16.411110 1.470040 -1.392537
7030 352 1 17.381110 1.413906 -1.347064
7031 352 1 18.351110 1.398231 -1.435344
7032 352 1 19.321110 1.355482 -1.305322
7033 352 1 20.291110 1.410010 -1.347979
7034 352 1 21.261110 1.494430 -1.430017
7035 352 1 22.231110 1.399174 -1.379313
7036 352 1 23.201110 1.499253 -1.289808
7037 352 1 24.171110 1.317248 -1.406323
7038 352 1 25.141110 1.482118 -1.396740
7039 352 1 26.111110 1.401686 -1.271638
7040 352 1 27.081110 1.464382 -1.291833
7041 353 1 -4.475065 4.546902 -8.603739
7042 353 1 -3.505065 4.565210 -8.513932
7043 353 1 -2.535065 4.585459 -8.565842
7044 353 1 -1.565065 4.651386 -8.570162
7045 353 1 -0.595065 4.533044 -8.643850
7046 353 1 0.374935 4.650698 -8.526780
7047 353 1 1.344935 4.569175 -8.509165
7048 353 1 2.314935 4.638898 -8.484656
7049 353 1 3.284935 4.511664 -8.527050
7050 353 1 4.254935 4.565073 -8.566553
7051 353 1 5.224935 4.619104 -8.565268
7052 353 1 6.194935 4.475175 -8.629079
7053 353 1 7.164935 4.548987 -8.538660
7054 353 1 8.134935 4.625802 -8.660291
7055 353 1 9.104935 4.639453 -8.580504
7056 353 1 10.074935 4.628670 -8.504593
7057 353 1 11.044935 4.659315 -8.508978
7058 353 1 12.014935 4.667867 -8.559164
7059 353 1 12.984935 4.505820 -8.644184
7060 353 1 13.954935 4.580404 -8.498870
7061 354 1 -1.721389 -8.619443 9.372714
7062 354 1 -0.751389 -8.638702 9.389651
7063 354 1 0.218611 -8.722968 9.508886
7064 354 1 1.188611 -8.653015 9.434741
7065 354 1 2.158611 -8.775976 9.368884
7066 354 1 3.128611 -8.772898 9.496186
7067 354 1 4.098611 -8.677076 9.359202
7068 354 1 5.068611 -8.670832 9.359825
7069 354 1 6.038611 -8.736987 9.465093
7070 354 1 7.008611 -8.583639 9.380457
7071 354 1 7.978611 -8.652124 9.431629
7072 354 1 8.948611 -8.693224 9.486062
7073 354 1 9.918611 -8.710426 9.496972
7074 354 1 10.888611 -8.748291 9.509812
7075 354 1 11.858611 -8.710009 9.472177
7076 354 1 12.828611 -8.702163 9.510315
7077 354 1 13.798611 -8.669670 9.548628
7078 354 1 14.768611 -8.649800 9.447639
7079 354 1 15.738611 -8.719351 9.455359
7080 354 1 16.708611 -8.708726 9.508624
7081 355 1 2.013858 -3.014595 6.687300
7082 355 1 2.983858 -2.874005 6.772374
7083 355 1 3.953858 -2.918744 6.664947
7084 355 1 4.923858 -2.927572 6.742223
7085 355 1 5.893858 -2.898171 6.757986
7086 355 1 6.863858 -2.973405 6.658332
7087 355 1 7.833858 -2.981869 6.735681
7088 355 1 8.803858 -2.981006 6.743578
7089 355 1 9.773858 -2.992937 6.671054
7090 355 1 10.743858 -3.022135 6.838538
7091 355 1 11.713858 -2.924981 6.832530
7092 355 1 12.683858 -3.032501 6.766394
7093 355 1 13.653858 -2.959774 6.770273
7094 355 1 14.623858 -2.959662 6.809260
7095 355 1 15.593858 -2.952297 6.715301
7096 355 1 16.563858 -2.926390 6.806162
7097 355 1 17.533858 -2.969878 6.779074
7098 355 1 18.503858 -2.971983 6.675087
7099 355 1 19.473858 -3.034664 6.691939
7100 355 1 20.443858 -2.975046 6.805846
7101 356 1 7.310540 -4.128745 -8.849461
7102 356 1 8.280540 -4.021951 -8.885173
7103 356 1 9.250540 -4.043619 -8.953726
7104 356 1 10.220540 -3.996682 -8.979967
7105 356 1 11.190540 -4.113089 -8.934342
7106 356 1 12.160540 -4.108720 -8.963243
7107 356 1 13.130540 -3.988957 -8.845069
7108 356 1 14.100540 -4.037851 -8.839985
7109 356 1 15.070540 -4.040038 -8.967220
7110 356 1 16.040540 -3.980639 -8.856042
7111 356 1 17.010540 -3.967422 -8.896637
7112 356 1 17.980540 -4.047467 -8.896072
7113 356 1 18.950540 -4.150411 -8.913735
7114 356 1 19.920540 -4.094907 -9.015578
7115 356 1 20.890540 -4.082309 -9.008674
7116 356 1 21.860540 -3.994062 -8.955505
7117 356 1 22.830540 -3.970977 -8.974681
7118 356 1 23.800540 -4.157515 -9.002760
7119 356 1 24.770540 -3.978980 -8.858632
7120 356 1 25.740540 -3.998478 -8.920629
7121 357 1 1.573530 1.273213 -9.598752
7122 357 1 2.543530 1.123828 -9.743252
7123 357 1 3.513530 1.140042 -9.732261
7124 357 1 4.483530 1.246937 -9.617018
7125 357 1 5.453530 1.170389 -9.705965
7126 357 1 6.423530 1.273458 -9.745771
7127 357 1 7.393530 1.240514 -9.644554
7128 357 1 8.363530 1.130511 -9.680102
7129 357 1 9.333530 1.191529 -9.660239
7130 357 1 10.303530 1.211949 -9.637784
7131 357 1 11.273530 1.206009 -9.680517
7132 357 1 12.243530 1.109265 -9.787848
7133 357 1 13.213530 1.138235 -9.707998
7134 357 1 14.183530 1.151555 -9.599803
7135 357 1 15.153530 1.130479 -9.770331
7136 357 1 16.123530 1.153631 -9.664318
7137 357 1 17.093530 1.121884 -9.695512
7138 357 1 18.063530 1.113175 -9.751751
7139 357 1 19.033530 1.247027 -9.613014
7140 357 1 20.003530 1.110382 -9.594344
7141 358 1 -7.672955 8.714406 9.827604
7142 358 1 -6.702955 8.727053 9.870704
7143 358 1 -5.732955 8.736500 9.907296
7144 358 1 -4.762955 8.718867 9.921508
7145 358 1 -3.792955 8.659134 9.929385
7146 358 1 -2.822955 8.732254 9.898858
7147 358 1 -1.852955 8.827009 9.958562
7148 358 1 -0.882955 8.677602 9.912239
7149 358 1 0.087045 8.664373 9.907254
7150 358 1 1.057045 8.807695 9.959462
7151 358 1 2.027045 8.785681 9.928374
7152 358 1 2.997045 8.686748 10.002789
7153 358 1 3.967045 8.783706 9.804702
7154 358 1 4.937045 8.748688 9.858513
7155 358 1 5.907045 8.691500 9.809388
7156 358 1 6.877045 8.794888 9.909012
7157 358 1 7.847045 8.653203 9.905121
7158 358 1 8.817045 8.783864 9.824000
7159 358 1 9.787045 8.653113 9.993882
7160 358 1 10.757045 8.765474 9.856119
7161 359 1 1.792698 -4.299010 9.043692
7162 359 1 2.762698 -4.180612 9.219254
7163 359 1 3.732698 -4.326777 9.213367
7164 359 1 4.702698 -4.252772 9.094985
7165 359 1 5.672698 -4.245923 9.122712
7166 359 1 6.642698 -4.260596 9.127363
7167 359 1 7.612698 -4.262200 9.041644
7168 359 1 8.582698 -4.289626 9.094476
7169 359 1 9.552698 -4.173251 9.090931
7170 359 1 10.522698 -4.354467 9.186800
7171 359 1 11.492698 -4.167173 9.161751
7172 359 1 12.462698 -4.221698 9.048496
7173 359 1 13.432698 -4.245879 9.084356
7174 359 1 14.402698 -4.289881 9.168006
7175 359 1 15.372698 -4.175774 9.107540
7176 359 1 16.342698 -4.203351 9.135804
7177 359 1 17.312698 -4.258791 9.118237
7178 359 1 18.282698 -4.346958 9.207187
7179 359 1 19.252698 -4.167768 9.156265
7180 359 1 20.222698 -4.319683 9.239219
7181 360 1 0.075738 6.718467 1.741579
7182 360 1 1.045738 6.631019 1.827611
7183 360 1 2.015738 6.644299 1.730295
7184 360 1 2.985738 6.558488 1.788325
7185 360 1 3.955738 6.691813 1.753731
7186 360 1 4.925738 6.591097 1.759803
7187 360 1 5.895738 6.617318 1.856337
7188 360 1 6.865738 6.687999 1.726387
7189 360 1 7.835738 6.535816 1.886912
7190 360 1 8.805738 6.549830 1.822146
7191 360 1 9.775738 6.535332 1.900814
7192 360 1 10.745738 6.598508 1.787711
7193 360 1 11.715738 6.712875 1.857817
7194 360 1 12.685738 6.592579 1.802859
7195 360 1 13.655738 6.536863 1.742922
7196 360 1 14.625738 6.717278 1.740108
7197 360 1 15.595738 6.697819 1.776850
7198 360 1 16.565738 6.693794 1.901294
7199 360 1 17.535738 6.676914 1.748748
7200 360 1 18.505738 6.596095 1.717272
7201 361 1 1.088505 6.206061 2.052833
7202 361 1 2.058505 6.186015 1.946654
7203 361 1 3.028505 6.064329 1.925526
7204 361 1 3.998505 6.036044 1.936990
7205 361 1 4.968505 6.012800 1.967826
7206 361 1 5.938505 6.023244 1.957313
7207 361 1 6.908505 6.195612 1.917350
7208 361 1 7.878505 6.044490 1.989500
7209 361 1 8.848505 6.051663 2.013575
7210 361 1 9.818505 6.203503 1.948854
7211 361 1 10.788505 6.052114 1.933166
7212 361 1 11.758505 6.103790 2.048133
7213 361 1 12.728505 6.177072 1.997739
7214 361 1 13.698505 6.028239 2.062927
7215 361 1 14.668505 6.149294 1.943062
7216 361 1 15.638505 6.137044 2.039611
7217 361 1 16.608505 6.070737 1.922072
7218 361 1 17.578505 6.154992 2.021244
7219 361 1 18.548505 6.192350 2.060243
7220 361 1 19.518505 6.188570 2.027425
7221 362 1 -0.039430 7.151530 -7.616097
7222 362 1 0.930570 7.032987 -7.584742
7223 362 1 1.900570 7.138810 -7.713027
7224 362 1 2.870570 7.192991 -7.611105
7225 362 1 3.840570 7.118042 -7.694802
7226 362 1 4.810570 7.152988 -7.638894
7227 362 1 5.780570 7.040456 -7.624079
7228 362 1 6.750570 7.041711 -7.695473
7229 362 1 7.720570 7.195508 -7.582889
7230 362 1 8.690570 7.030127 -7.714319
7231 362 1 9.660570 7.131644 -7.691811
7232 362 1 10.630570 7.129161 -7.615558
7233 362 1 11.600570 7.053795 -7.582553
7234 362 1 12.570570 7.128969 -7.709601
7235 362 1 13.540570 7.171729 -7.655653
7236 362 1 14.510570 7.061244 -7.727534
7237 362 1 15.480570 7.034493 -7.652121
7238 362 1 16.450570 7.192147 -7.729750
7239 362 1 17.420570 7.167574 -7.708494
7240 362 1 18.390570 7.114901 -7.676117
7241 363 1 -4.293506 -1.459570 -2.307397
7242 363 1 -3.323506 -1.604646 -2.262305
7243 363 1 -2.353506 -1.528868 -2.199064
7244 363 1 -1.383506 -1.472615 -2.198527
7245 363 1 -0.413506 -1.548721 -2.160720
7246 363 1 0.556494 -1.632095 -2.324139
7247 363 1 1.526494 -1.487877 -2.227838
7248 363 1 2.496494 -1.621606 -2.225994
7249 363 1 3.466494 -1.608676 -2.275085
7250 363 1 4.436494 -1.637423 -2.312451
7251 363 1 5.406494 -1.604445 -2.278422
7252 363 1 6.376494 -1.520902 -2.146252
7253 363 1 7.346494 -1.523181 -2.331885
7254 363 1 8.316494 -1.513485 -2.189565
7255 363 1 9.286494 -1.606088 -2.305767
7256 363 1 10.256494 -1.536637 -2.164731
7257 363 1 11.226494 -1.570698 -2.175706
7258 363 1 12.196494 -1.516511 -2.162622
7259 363 1 13.166494 -1.518882 -2.270084
7260 363 1 14.136494 -1.576814 -2.257726
7261 364 1 -8.218363 -8.594077 6.168439
7262 364 1 -7.248363 -8.610430 6.302275
7263 364 1 -6.278363 -8.714218 6.197701
7264 364 1 -5.308363 -8.683051 6.243895
7265 364 1 -4.338363 -8.610253 6.233299
7266 364 1 -3.368363 -8.573362 6.215031
7267 364 1 -2.398363 -8.600213 6.300662
7268 364 1 -1.428363 -8.573131 6.192458
7269 364 1 -0.458363 -8.545541 6.291608
7270 364 1 0.511637 -8.621768 6.211306
7271 364 1 1.481637 -8.560425 6.214847
7272 364 1 2.451637 -8.623528 6.250935
7273 364 1 3.421637 -8.665931 6.336764
7274 364 1 4.391637 -8.577302 6.197654
7275 364 1 5.361637 -8.675973 6.322145
7276 364 1 6.331637 -8.537980 6.265130
7277 364 1 7.301637 -8.569169 6.193841
7278 364 1 8.271637 -8.720480 6.226337
7279 364 1 9.241637 -8.639249 6.162529
7280 364 1 10.211637 -8.608268 6.355243
7281 365 1 0.529657 6.180385 -9.040062
7282 365 1 1.499657 6.213423 -9.068801
7283 365 1 2.469657 6.061833 -9.031380
7284 365 1 3.439657 6.233637 -9.102137
7285 365 1 4.409657 6.136460 -9.015849
7286 365 1 5.379657 6.169034 -9.020467
7287 365 1 6.349657 6.195158 -9.081025
7288 365 1 7.319657 6.078920 -8.906137
7289 365 1 8.289657 6.101322 -9.092972
7290 365 1 9.259657 6.123410 -8.995901
7291 365 1 10.229657 6.177940 -9.078720
7292 365 1 11.199657 6.206070 -9.046504
7293 365 1 12.169657 6.193499 -8.993449
7294 365 1 13.139657 6.201454 -9.097954
7295 365 1 14.109657 6.212320 -9.080166
7296 365 1 15.079657 6.094539 -8.985872
7297 365 1 16.049657 6.155786 -9.082400
7298 365 1 17.019657 6.177112 -8.941426
7299 365 1 17.989657 6.079273 -9.034883
7300 365 1 18.959657 6.113367 -8.954155
7301 366 1 -6.577944 -8.520253 6.091984
7302 366 1 -5.607944 -8.530484 6.108622
7303 366 1 -4.637944 -8.486969 6.119822
7304 366 1 -3.667944 -8.634413 6.076499
7305 366 1 -2.697944 -8.606688 5.957856
7306 366 1 -1.727944 -8.561150 6.142899
7307 366 1 -0.757944 -8.639953 5.985104
7308 366 1 0.212056 -8.627917 6.016575
7309 366 1 1.182056 -8.641212 6.007661
7310 366 1 2.152056 -8.610668 5.998890
7311 366 1 3.122056 -8.571371 6.053979
7312 366 1 4.092056 -8.574520 5.982195
7313 366 1 5.062056 -8.603439 6.074236
7314 366 1 6.032056 -8.587475 6.060372
7315 366 1 7.002056 -8.601735 5.981789
7316 366 1 7.972056 -8.622009 6.066704
7317 366 1 8.942056 -8.535475 6.006650
7318 366 1 9.912056 -8.533248 6.121353
7319 366 1 10.882056 -8.486349 5.944624
7320 366 1 11.852056 -8.668415 5.998857
7321 367 1 -7.787275 -1.717755 -8.825611
7322 367 1 -6.817275 -1.701407 -8.733762
7323 367 1 -5.847275 -1.607536 -8.749601
7324 367 1 -4.877275 -1.648526 -8.925248
7325 367 1 -3.907275 -1.677907 -8.872493
7326 367 1 -2.937275 -1.744195 -8.886991
7327 367 1 -1.967275 -1.650366 -8.773254
7328 367 1 -0.997275 -1.693251 -8.796600
7329 367 1 -0.027275 -1.700010 -8.880539
7330 367 1 0.942725 -1.712027 -8.792113
7331 367 1 1.912725 -1.683948 -8.775642
7332 367 1 2.882725 -1.617234 -8.729084
7333 367 1 3.852725 -1.655089 -8.768476
7334 367 1 4.822725 -1.724800 -8.842671
7335 367 1 5.792725 -1.772630 -8.920703
7336 367 1 6.762725 -1.609551 -8.854454
7337 367 1 7.732725 -1.765739 -8.883461
7338 367 1 8.702725 -1.768827 -8.884068
7339 367 1 9.672725 -1.744702 -8.851781
7340 367 1 10.642725 -1.796943 -8.735988
7341 368 1 -6.694298 4.473807 7.029772
7342 368 1 -5.724298 4.492529 7.023860
7343 368 1 -4.754298 4.422891 6.973137
7344 368 1 -3.784298 4.438518 6.958010
7345 368 1 -2.814298 4.534912 6.947575
7346 368 1 -1.844298 4.392252 6.847085
7347 368 1 -0.874298 4.407062 6.979531
7348 368 1 0.095702 4.415104 6.878088
7349 368 1 1.065702 4.392540 6.956676
7350 368 1 2.035702 4.522893 6.844562
7351 368 1 3.005702 4.547311 6.845236
7352 368 1 3.975702 4.516139 6.943944
7353 368 1 4.945702 4.538204 6.925633
7354 368 1 5.915702 4.497952 6.845613
7355 368 1 6.885702 4.513984 6.919157
7356 368 1 7.855702 4.461820 6.853444
7357 368 1 8.825702 4.465778 6.974986
7358 368 1 9.795702 4.440260 7.022796
7359 368 1 10.765702 4.523125 6.955739
7360 368 1 11.735702 4.530224 6.949253
7361 369 1 3.358590 -5.860582 -6.511752
7362 369 1 4.328590 -5.874311 -6.560827
7363 369 1 5.298590 -5.780749 -6.468455
7364 369 1 6.268590 -5.842505 -6.539123
7365 369 1 7.238590 -5.800875 -6.436728
7366 369 1 8.208590 -5.864989 -6.626920
7367 369 1 9.178590 -5.863320 -6.621351
7368 369 1 10.148590 -5.763720 -6.444618
7369 369 1 11.118590 -5.916457 -6.593984
7370 369 1 12.088590 -5.885043 -6.544516
7371 369 1 13.058590 -5.862482 -6.479277
7372 369 1 14.028590 -5.893462 -6.512718
7373 369 1 14.998590 -5.849265 -6.516368
7374 369 1 15.968590 -5.927319 -6.516149
7375 369 1 16.938590 -5.921405 -6.588849
7376 369 1 17.908590 -5.829282 -6.502137
7377 369 1 18.878590 -5.760587 -6.620529
7378 369 1 19.848590 -5.826171 -6.456942
7379 369 1 20.818590 -5.750776 -6.589917
7380 369 1 21.788590 -5.845713 -6.461899
7381 370 1 -3.235897 -1.497232 -7.863911
7382 370 1 -2.265897 -1.425446 -7.818709
7383 370 1 -1.295897 -1.535428 -7.950502
7384 370 1 -0.325897 -1.557618 -7.960787
7385 370 1 0.644103 -1.533980 -7.783082
7386 370 1 1.614103 -1.563671 -7.814017
7387 370 1 2.584103 -1.451164 -7.818535
7388 370 1 3.554103 -1.511613 -7.948090
7389 370 1 4.524103 -1.444702 -7.788711
7390 370 1 5.494103 -1.482248 -7.792821
7391 370 1 6.464103 -1.400051 -7.918703
7392 370 1 7.434103 -1.415599 -7.970603
7393 370 1 8.404103 -1.531524 -7.857854
7394 370 1 9.374103 -1.508521 -7.831658
7395 370 1 10.344103 -1.377142 -7.838401
7396 370 1 11.314103 -1.407529 -7.810601
7397 370 1 12.284103 -1.419378 -7.976781
7398 370 1 13.254103 -1.539906 -7.949769
7399 370 1 14.224103 -1.515501 -7.786356
7400 370 1 15.194103 -1.453163 -7.840908
7401 371 1 -1.822109 0.401358 -7.798701
7402 371 1 -0.852109 0.405430 -7.820975
7403 371 1 0.117891 0.394619 -7.901947
7404 371 1 1.087891 0.493246 -7.767982
7405 371 1 2.057891 0.529086 -7.773799
7406 371 1 3.027891 0.575521 -7.752054
7407 371 1 3.997891 0.478970 -7.805985
7408 371 1 4.967891 0.450232 -7.723887
7409 371 1 5.937891 0.472485 -7.786972
7410 371 1 6.907891 0.404770 -7.768459
7411 371 1 7.877891 0.490810 -7.769925
7412 371 1 8.847891 0.432462 -7.890237
7413 371 1 9.817891 0.409733 -7.818915
7414 371 1 10.787891 0.579784 -7.897985
7415 371 1 11.757891 0.582338 -7.740913
7416 371 1 12.727891 0.563684 -7.824465
7417 371 1 13.697891 0.414764 -7.715387
7418 371 1 14.667891 0.535999 -7.802094
7419 371 1 15.637891 0.473721 -7.731064
7420 371 1 16.607891 0.487892 -7.727470
7421 372 1 -7.748522 -5.898714 5.823517
7422 372 1 -6.778522 -5.782777 5.778421
7423 372 1 -5.808522 -5.855961 5.693761
7424 372 1 -4.838522 -5.743155 5.663535
7425 372 1 -3.868522 -5.898347 5.641401
7426 372 1 -2.898522 -5.816306 5.671402
7427 372 1 -1.928522 -5.814770 5.783181
7428 372 1 -0.958522 -5.782151 5.824732
7429 372 1 0.011478 -5.746339 5.835878
7430 372 1 0.981478 -5.773997 5.639830
7431 372 1 1.951478 -5.743067 5.770939
7432 372 1 2.921478 -5.878163 5.747138
7433 372 1 3.891478 -5.882364 5.754346
7434 372 1 4.861478 -5.848020 5.761743
7435 372 1 5.831478 -5.750740 5.830573
7436 372 1 6.801478 -5.778987 5.705361
7437 372 1 7.771478 -5.889486 5.686665
7438 372 1 8.741478 -5.826571 5.691083
7439 372 1 9.711478 -5.803270 5.809358
7440 372 1 10.681478 -5.901617 5.802423
7441 373 1 -2.363814 9.675455 -8.342403
7442 373 1 -1.393814 9.682283 -8.460588
7443 373 1 -0.423814 9.603596 -8.403414
7444 373 1 0.546186 9.588414 -8.411244
7445 373 1 1.516186 9.513856 -8.494975
7446 373 1 2.486186 9.628125 -8.503479
7447 373 1 3.456186 9.613662 -8.480427
7448 373 1 4.426186 9.603980 -8.333763
7449 373 1 5.396186 9.538543 -8.496976
7450 373 1 6.366186 9.578876 -8.336632
7451 373 1 7.336186 9.503022 -8.338097
7452 373 1 8.306186 9.521909 -8.347438
7453 373 1 9.276186 9.510249 -8.341182
7454 373 1 10.246186 9.509161 -8.424236
7455 373 1 11.216186 9.509900 -8.357068
7456 373 1 12.186186 9.565817 -8.483212
7457 373 1 13.156186 9.575650 -8.470650
7458 373 1 14.126186 9.597584 -8.415888
7459 373 1 15.096186 9.579346 -8.499480
7460 373 1 16.066186 9.662822 -8.343030
7461 374 1 8.469702 -9.510259 -8.719141
7462 374 1 9.439702 -9.603081 -8.776067
7463 374 1 10.409702 -9.586988 -8.815444
7464 374 1 11.379702 -9.651855 -8.663607
7465 374 1 12.349702 -9.689036 -8.787166
7466 374 1 13.319702 -9.530553 -8.696864
7467 374 1 14.289702 -9.645440 -8.767802
7468 374 1 15.259702 -9.665530 -8.666787
7469 374 1 16.229702 -9.677558 -8.811354
7470 374 1 17.199702 -9.674237 -8.664881
7471 374 1 18.169702 -9.687331 -8.728658
7472 374 1 19.139702 -9.682937 -8.766767
7473 374 1 20.109702 -9.594280 -8.656769
7474 374 1 21.079702 -9.581665 -8.748842
7475 374 1 22.049702 -9.588718 -8.702081
7476 374 1 23.019702 -9.534404 -8.681775
7477 374 1 23.989702 -9.628301 -8.659547
7478 374 1 24.959702 -9.678727 -8.669577
7479 374 1 25.929702 -9.586515 -8.799913
7480 374 1 26.899702 -9.684029 -8.842522
7481 375 1 -0.987884 -5.891303 -1.419521
7482 375 1 -0.017884 -6.018577 -1.349120
7483 375 1 0.952116 -5.928286 -1.350311
7484 375 1 1.922116 -5.952639 -1.495989
7485 375 1 2.892116 -5.867061 -1.490716
7486 375 1 3.862116 -5.942464 -1.530661
7487 375 1 4.832116 -5.885473 -1.364189
7488 375 1 5.802116 -6.039026 -1.534652
7489 375 1 6.772116 -5.986039 -1.404798
7490 375 1 7.742116 -5.893857 -1.495208
7491 375 1 8.712116 -5.955200 -1.440412
7492 375 1 9.682116 -5.895220 -1.398199
7493 375 1 10.652116 -5.884533 -1.520544
7494 375 1 11.622116 -5.895555 -1.487912
7495 375 1 12.592116 -6.029745 -1.463528
7496 375 1 13.562116 -5.997674 -1.356583
7497 375 1 14.532116 -5.992293 -1.518375
7498 375 1 15.502116 -6.004234 -1.438101
7499 375 1 16.472116 -5.906497 -1.519658
7500 375 1 17.442116 -5.905430 -1.471856
7501 376 1 3.481626 -6.401640 -7.944770
7502 376 1 4.451626 -6.485974 -7.838722
7503 376 1 5.421626 -6.364096 -7.931978
7504 376 1 6.391626 -6.393264 -7.897816
7505 376 1 7.361626 -6.517944 -7.834127
7506 376 1 8.331626 -6.386863 -7.915496
7507 376 1 9.301626 -6.399914 -7.965569
7508 376 1 10.271626 -6.442090 -7.819358
7509 376 1 11.241626 -6.534336 -7.832430
7510 376 1 12.211626 -6.440350 -7.846886
7511 376 1 13.181626 -6.478391 -7.923436
7512 376 1 14.151626 -6.527493 -7.959864
7513 376 1 15.121626 -6.397365 -7.803191
7514 376 1 16.091626 -6.387493 -7.902451
7515 376 1 17.061626 -6.464489 -7.858478
7516 376 1 18.031626 -6.401916 -7.848883
7517 376 1 19.001626 -6.473294 -7.860985
7518 376 1 19.971626 -6.482392 -7.863474
7519 376 1 20.941626 -6.496294 -7.850630
7520 376 1 21.911626 -6.509638 -7.922770
7521 377 1 6.468775 0.514768 4.842248
7522 377 1 7.438775 0.520206 4.927412
7523 377 1 8.408775 0.521249 4.825005
7524 377 1 9.378775 0.543389 4.920101
7525 377 1 10.348775 0.538768 4.970918
7526 377 1 11.318775 0.513179 4.886188
7527 377 1 12.288775 0.567033 4.833101
7528 377 1 13.258775 0.595346 4.793592
7529 377 1 14.228775 0.596786 4.855287
7530 377 1 15.198775 0.460798 4.798400
7531 377 1 16.168775 0.536119 4.827337
7532 377 1 17.138775 0.633303 4.845143
7533 377 1 18.108775 0.567610 4.794674
7534 377 1 19.078775 0.612098 4.776414
7535 377 1 20.048775 0.550228 4.813491
7536 377 1 21.018775 0.464837 4.945015
7537 377 1 21.988775 0.568751 4.915860
7538 377 1 22.958775 0.526147 4.955240
7539 377 1 23.928775 0.507572 4.971884
7540 377 1 24.898775 0.519894 4.904350
7541 378 1 -1.140135 7.767774 1.788801
7542 378 1 -0.170135 7.873669 1.881739
7543 378 1 0.799865 7.854577 1.899393
7544 378 1 1.769865 7.833230 1.848675
7545 378 1 2.739865 7.910664 1.858898
7546 378 1 3.709865 7.920728 1.944422
7547 378 1 4.679865 7.767913 1.856189
7548 378 1 5.649865 7.886053 1.868791
7549 378 1 6.619865 7.868378 1.959621
7550 378 1 7.589865 7.955637 1.862012
7551 378 1 8.559865 7.888492 1.936006
7552 378 1 9.529865 7.774635 1.915566
7553 378 1 10.499865 7.867547 1.796598
7554 378 1 11.469865 7.771896 1.862368
7555 378 1 12.439865 7.916402 1.986654
7556 378 1 13.409865 7.953321 1.919584
7557 378 1 14.379865 7.866013 1.947603
7558 378 1 15.349865 7.930744 1.951231
7559 378 1 16.319865 7.846246 1.797799
7560 378 1 17.289865 7.838496 1.822575
7561 379 1 1.176762 -0.811368 -9.849987
7562 379 1 2.146762 -0.794690 -9.697465
7563 379 1 3.116762 -0.705518 -9.804552
7564 379 1 4.086762 -0.799466 -9.717436
7565 379 1 5.056762 -0.751508 -9.722000
7566 379 1 6.026762 -0.716975 -9.692928
7567 379 1 6.996762 -0.777180 -9.755990
7568 379 1 7.966762 -0.795567 -9.796014
7569 379 1 8.936762 -0.737986 -9.797058
7570 379 1 9.906762 -0.741910 -9.709054
7571 379 1 10.876762 -0.728959 -9.730985
7572 379 1 11.846762 -0.728028 -9.735194
7573 379 1 12.816762 -0.763919 -9.726208
7574 379 1 13.786762 -0.642409 -9.780028
7575 379 1 14.756762 -0.827111 -9.769903
7576 379 1 15.726762 -0.796868 -9.790635
7577 379 1 16.696762 -0.707258 -9.686470
7578 379 1 17.666762 -0.729334 -9.848460
7579 379 1 18.636762 -0.827802 -9.831204
7580 379 1 19.606762 -0.823819 -9.716435
7581 380 1 -8.603037 3.801309 8.312050
7582 380 1 -7.633037 3.811871 8.235028
7583 380 1 -6.663037 3.806958 8.263095
7584 380 1 -5.693037 3.853865 8.344416
7585 380 1 -4.723037 3.794799 8.290024
7586 380 1 -3.753037 3.902869 8.262104
7587 380 1 -2.783037 3.771889 8.275507
7588 380 1 -1.813037 3.893751 8.226804
7589 380 1 -0.843037 3.881960 8.255987
7590 380 1 0.126963 3.914561 8.272219
7591 380 1 1.096963 3.783014 8.326890
7592 380 1 2.066963 3.872152 8.283982
7593 380 1 3.036963 3.832713 8.200296
7594 380 1 4.006963 3.962283 8.330545
7595 380 1 4.976963 3.848929 8.185254
7596 380 1 5.946963 3.872359 8.254100
7597 380 1 6.916963 3.888932 8.300675
7598 380 1 7.886963 3.769911 8.325322
7599 380 1 8.856963 3.918409 8.236050
7600 380 1 9.826963 3.940258 8.176486
7601 381 1 0.114680 -7.680530 4.796275
7602 381 1 1.084680 -7.778279 4.954402
7603 381 1 2.054680 -7.792039 4.812754
7604 381 1 3.024680 -7.672860 4.966778
7605 381 1 3.994680 -7.649321 4.987335
7606 381 1 4.964680 -7.730911 4.835508
7607 381 1 5.934680 -7.755760 4.824075
7608 381 1 6.904680 -7.828023 4.879810
7609 381 1 7.874680 -7.689246 4.952484
7610 381 1 8.844680 -7.822869 4.990625
7611 381 1 9.814680 -7.658601 4.835312
7612 381 1 10.784680 -7.772441 4.854849
7613 381 1 11.754680 -7.749733 4.900113
7614 381 1 12.724680 -7.754083 4.919704
7615 381 1 13.694680 -7.737607 4.948545
7616 381 1 14.664680 -7.731184 4.849944
7617 381 1 15.634680 -7.686664 4.973658
7618 381 1 16.604680 -7.689626 4.941118
7619 381 1 17.574680 -7.711134 4.855625
7620 381 1 18.544680 -7.763036 4.928623
7621 382 1 -8.426005 0.720312 5.407320
7622 382 1 -7.456005 0.642067 5.505117
7623 382 1 -6.486005 0.723293 5.539781
7624 382 1 -5.516005 0.632433 5.495250
7625 382 1 -4.546005 0.653542 5.471179
7626 382 1 -3.576005 0.689509 5.522612
7627 382 1 -2.606005 0.619672 5.462507
7628 382 1 -1.636005 0.753420 5.598348
7629 382 1 -0.666005 0.603477 5.472801
7630 382 1 0.303995 0.574920 5.454620
7631 382 1 1.273995 0.720412 5.561085
7632 382 1 2.243995 0.601641 5.478749
7633 382 1 3.213995 0.744977 5.497822
7634 382 1 4.183995 0.669691 5.418434
7635 382 1 5.153995 0.640254 5.539430
7636 382 1 6.123995 0.760681 5.570879
7637 382 1 7.093995 0.595811 5.483451
7638 382 1 8.063995 0.731621 5.452665
7639 382 1 9.033995 0.759879 5.443577
7640 382 1 10.003995 0.598232 5.469417
7641 383 1 -6.029820 4.214065 5.371480
7642 383 1 -5.059820 4.290850 5.332559
7643 383 1 -4.089820 4.293302 5.266320
7644 383 1 -3.119820 4.226353 5.269842
7645 383 1 -2.149820 4.301145 5.245285
7646 383 1 -1.179820 4.236335 5.263585
7647 383 1 -0.209820 4.389093 5.368982
7648 383 1 0.760180 4.209012 5.338276
7649 383 1 1.730180 4.308049 5.304464
7650 383 1 2.700180 4.314041 5.380816
7651 383 1 3.670180 4.275568 5.374338
7652 383 1 4.640180 4.213713 5.349667
7653 383 1 5.610180 4.216498 5.235358
7654 383 1 6.580180 4.361779 5.408460
7655 383 1 7.550180 4.233283 5.386841
7656 383 1 8.520180 4.337041 5.285467
7657 383 1 9.490180 4.330724 5.376502
7658 383 1 10.460180 4.210242 5.278559
7659 383 1 11.430180 4.285790 5.291932
7660 383 1 12.400180 4.365410 5.271574
7661 384 1 -5.569314 8.189740 0.028129
7662 384 1 -4.599314 8.338806 0.117006
7663 384 1 -3.629314 8.301542 0.138215
7664 384 1 -2.659314 8.208904 0.089673
7665 384 1 -1.689314 8.199049 0.024753
7666 384 1 -0.719314 8.309495 0.105577
7667 384 1 0.250686 8.179814 0.137725
7668 384 1 1.220686 8.286280 0.003656
7669 384 1 2.190686 8.223931 0.008379
7670 384 1 3.160686 8.223936 0.051329
7671 384 1 4.130686 8.204106 0.014253
7672 384 1 5.100686 8.198607 0.151318
7673 384 1 6.070686 8.341622 0.173756
7674 384 1 7.040686 8.362868 0.028826
7675 384 1 8.010686 8.276005 0.139520
7676 384 1 8.980686 8.361421 0.102587
7677 384 1 9.950686 8.235870 0.163917
7678 384 1 10.920686 8.207679 0.102193
7679 384 1 11.890686 8.196263 0.083420
7680 384 1 12.860686 8.369940 0.008123
7681 385 1 -9.116314 8.024607 -0.493421
7682 385 1 -8.146314 8.089235 -0.379965
7683 385 1 -7.176314 8.017906 -0.406216
7684 385 1 -6.206314 8.158453 -0.496192
7685 385 1 -5.236314 8.075996 -0.570300
7686 385 1 -4.266314 7.971867 -0.546314
7687 385 1 -3.296314 8.030361 -0.525158
7688 385 1 -2.326314 8.001925 -0.382023
7689 385 1 -1.356314 8.122434 -0.402970
7690 385 1 -0.386314 8.021285 -0.438327
7691 385 1 0.583686 8.042435 -0.529194
7692 385 1 1.553686 8.163791 -0.467809
7693 385 1 2.523686 8.012763 -0.493921
7694 385 1 3.493686 8.116805 -0.573953
7695 385 1 4.463686 8.037219 -0.547778
7696 385 1 5.433686 7.970046 -0.419374
7697 385 1 6.403686 7.970736 -0.493282
7698 385 1 7.373686 8.149889 -0.496387
7699 385 1 8.343686 7.972196 -0.477791
7700 385 1 9.313686 7.975756 -0.505444
7701 386 1 -1.580081 6.096570 -2.101133
7702 386 1 -0.610081 6.145248 -2.253573
7703 386 1 0.359919 6.112394 -2.084977
7704 386 1 1.329919 6.130290 -2.169850
7705 386 1 2.299919 6.143255 -2.111927
7706 386 1 3.269919 6.108292 -2.186634
7707 386 1 4.239919 6.245732 -2.206581
7708 386 1 5.209919 6.250822 -2.167302
7709 386 1 6.179919 6.101139 -2.162906
7710 386 1 7.149919 6.138095 -2.163666
7711 386 1 8.119919 6.242621 -2.163549
7712 386 1 9.089919 6.152154 -2.261971
7713 386 1 10.059919 6.248716 -2.090210
7714 386 1 11.029919 6.127844 -2.182315
7715 386 1 11.999919 6.137440 -2.149171
7716 386 1 12.969919 6.128350 -2.099794
7717 386 1 13.939919 6.137043 -2.259743
7718 386 1 14.909919 6.133458 -2.145086
7719 386 1 15.879919 6.163967 -2.088275
7720 386 1 16.849919 6.161229 -2.118053
7721 387 1 -8.554979 7.076201 6.677112
7722 387 1 -7.584979 7.092063 6.599900
7723 387 1 -6.614979 7.125679 6.580059
7724 387 1 -5.644979 6.989966 6.654471
7725 387 1 -4.674979 7.017600 6.645368
7726 387 1 -3.704979 7.114912 6.721278
7727 387 1 -2.734979 6.971463 6.638775
7728 387 1 -1.764979 7.082003 6.678112
7729 387 1 -0.794979 7.112213 6.663732
7730 387 1 0.175021 7.025039 6.607774
7731 387 1 1.145021 7.070978 6.762602
7732 387 1 2.115021 7.069075 6.653581
7733 387 1 3.085021 7.100725 6.638521
7734 387 1 4.055021 7.009501 6.726882
7735 387 1 5.025021 7.128297 6.754896
7736 387 1 5.995021 7.116435 6.617028
7737 387 1 6.965021 7.154045 6.574485
7738 387 1 7.935021 7.074411 6.570569
7739 387 1 8.905021 7.112989 6.649706
7740 387 1 9.875021 7.000840 6.751657
7741 388 1 4.133053 -8.943393 0.547092
7742 388 1 5.103053 -8.982768 0.577972
7743 388 1 6.073053 -8.931687 0.590816
7744 388 1 7.043053 -8.960624 0.587295
7745 388 1 8.013053 -8.969275 0.627039
7746 388 1 8.983053 -8.889498 0.676458
7747 388 1 9.953053 -8.914372 0.627011
7748 388 1 10.923053 -8.963168 0.568766
7749 388 1 11.893053 -8.962248 0.597772
7750 388 1 12.863053 -9.045014 0.662039
7751 388 1 13.833053 -8.912313 0.502478
7752 388 1 14.803053 -9.060480 0.561443
7753 388 1 15.773053 -8.995000 0.507040
7754 388 1 16.743053 -8.908470 0.507118
7755 388 1 17.713053 -8.900328 0.683195
7756 388 1 18.683053 -8.972016 0.604378
7757 388 1 19.653053 -9.071921 0.640960
7758 388 1 20.623053 -8.911432 0.578325
7759 388 1 21.593053 -9.046742 0.596473
7760 388 1 22.563053 -8.992600 0.611299
7761 389 1 5.361909 4.771769 0.659956
7762 389 1 6.331909 4.671321 0.710778
7763 389 1 7.301909 4.680824 0.819567
7764 389 1 8.271909 4.704763 0.828682
7765 389 1 9.241909 4.793522 0.702895
7766 389 1 10.211909 4.722538 0.767770
7767 389 1 11.181909 4.743190 0.712752
7768 389 1 12.151909 4.747970 0.662653
7769 389 1 13.121909 4.741028 0.735384
7770 389 1 14.091909 4.841970 0.728737
7771 389 1 15.061909 4.767600 0.746848
7772 389 1 16.031909 4.790308 0.822245
7773 389 1 17.001909 4.792433 0.656353
7774 389 1 17.971909 4.787097 0.830598
7775 389 1 18.941909 4.851047 0.823012
7776 389 1 19.911909 4.868076 0.658778
7777 389 1 20.881909 4.725070 0.791171
7778 389 1 21.851909 4.795302 0.674777
7779 389 1 22.821909 4.837919 0.815286
7780 389 1 23.791909 4.851182 0.716469
7781 390 1 1.287011 -9.246371 9.714446
7782 390 1 2.257011 -9.165266 9.835021
7783 390 1 3.227011 -9.164090 9.688897
7784 390 1 4.197011 -9.238105 9.729536
7785 390 1 5.167011 -9.109874 9.643987
7786 390 1 6.137011 -9.067705 9.737559
7787 390 1 7.107011 -9.126740 9.778359
7788 390 1 8.077011 -9.218819 9.746878
7789 390 1 9.047011 -9.232859 9.787806
7790 390 1 10.017011 -9.139902 9.685832
7791 390 1 10.987011 -9.249741 9.761595
7792 390 1 11.957011 -9.123508 9.663643
7793 390 1 12.927011 -9.067661 9.813006
7794 390 1 13.897011 -9.145724 9.817559
7795 390 1 14.867011 -9.072554 9.755534
7796 390 1 15.837011 -9.145329 9.680317
7797 390 1 16.807011 -9.097123 9.811053
7798 390 1 17.777011 -9.196003 9.787956
7799 390 1 18.747011 -9.069413 9.765283
7800 390 1 19.717011 -9.104028 9.786924
7801 391 1 -9.252143 5.869814 3.538879
7802 391 1 -8.282143 5.946757 3.669809
7803 391 1 -7.312143 5.914528 3.620136
7804 391 1 -6.342143 5.965840 3.574803
7805 391 1 -5.372143 5.998267 3.730112
7806 391 1 -4.402143 5.922877 3.636502
7807 391 1 -3.432143 5.943506 3.720507
7808 391 1 -2.462143 5.879591 3.592578
7809 391 1 -1.492143 5.989571 3.587929
7810 391 1 -0.522143 5.868660 3.628996
7811 391 1 0.447857 5.807595 3.629771
7812 391 1 1.417857 5.953433 3.614029
7813 391 1 2.387857 5.987792 3.697615
7814 391 1 3.357857 5.889491 3.727609
7815 391 1 4.327857 5.991511 3.609163
7816 391 1 5.297857 5.970412 3.539168
7817 391 1 6.267857 5.887738 3.624217
7818 391 1 7.237857 5.958781 3.703706
7819 391 1 8.207857 5.897339 3.568827
7820 391 1 9.177857 5.965159 3.669475
7821 392 1 -1.275291 -5.019181 5.974238
7822 392 1 -0.305291 -4.865037 5.897377
7823 392 1 0.664709 -4.928749 5.883971
7824 392 1 1.634709 -4.922383 5.857563
7825 392 1 2.604709 -4.871070 5.833916
7826 392 1 3.574709 -4.888558 5.973887
7827 392 1 4.544709 -4.983950 5.980401
7828 392 1 5.514709 -4.991388 5.875052
7829 392 1 6.484709 -4.918049 5.847493
7830 392 1 7.454709 -5.000788 5.987913
7831 392 1 8.424709 -4.904551 5.878839
7832 392 1 9.394709 -4.983270 5.967562
7833 392 1 10.364709 -4.869529 5.876424
7834 392 1 11.334709 -4.919858 6.005084
7835 392 1 12.304709 -5.041499 5.816465
7836 392 1 13.274709 -4.906347 5.864203
7837 392 1 14.244709 -4.887511 6.003189
7838 392 1 15.214709 -4.906862 5.835728
7839 392 1 16.184709 -5.056782 5.955923
7840 392 1 17.154709 -4.919807 5.997381
7841 393 1 3.670072 -4.274704 1.105812
7842 393 1 4.640072 -4.355786 1.194689
7843 393 1 5.610072 -4.412933 1.062368
7844 393 1 6.580072 -4.243611 1.140316
7845 393 1 7.550072 -4.384208 1.010747
7846 393 1 8.520072 -4.331781 1.007491
7847 393 1 9.490072 -4.331051 1.026761
7848 393 1 10.460072 -4.301588 1.096632
7849 393 1 11.430072 -4.419660 1.010698
7850 393 1 12.400072 -4.352019 1.053550
7851 393 1 13.370072 -4.250736 1.106016
7852 393 1 14.340072 -4.398476 1.033938
7853 393 1 15.310072 -4.269136 1.010150
7854 393 1 16.280072 -4.269911 1.060437
7855 393 1 17.250072 -4.374316 1.039207
7856 393 1 18.220072 -4.294858 1.118698
7857 393 1 19.190072 -4.230720 1.156850
7858 393 1 20.160072 -4.241098 1.079955
7859 393 1 21.130072 -4.303512 1.085997
7860 393 1 22.100072 -4.222047 1.064135
7861 394 1 -8.062538 5.577505 -8.038523
7862 394 1 -7.092538 5.469299 -8.023664
7863 394 1 -6.122538 5.604584 -8.080518
7864 394 1 -5.152538 5.574653 -8.191347
7865 394 1 -4.182538 5.508484 -8.099344
7866 394 1 -3.212538 5.589384 -8.099351
7867 394 1 -2.242538 5.510260 -8.213091
7868 394 1 -1.272538 5.470639 -8.084159
7869 394 1 -0.302538 5.532153 -8.164009
7870 394 1 0.667462 5.443065 -8.135804
7871 394 1 1.637462 5.448114 -8.083475
7872 394 1 2.607462 5.525675 -8.127658
7873 394 1 3.577462 5.521678 -8.187245
7874 394 1 4.547462 5.596390 -8.075527
7875 394 1 5.517462 5.529477 -8.072733
7876 394 1 6.487462 5.477348 -8.098572
7877 394 1 7.457462 5.594080 -8.135084
7878 394 1 8.427462 5.459732 -8.056358
7879 394 1 9.397462 5.451984 -8.081875
7880 394 1 10.367462 5.447732 -8.189306
7881 395 1 -8.468560 -3.036878 7.768702
7882 395 1 -7.498560 -2.999787 7.811911
7883 395 1 -6.528560 -2.969780 7.635509
7884 395 1 -5.558560 -2.995449 7.654518
7885 395 1 -4.588560 -2.941652 7.775593
7886 395 1 -3.618560 -3.054417 7.634513
7887 395 1 -2.648560 -3.088122 7.660864
7888 395 1 -1.678560 -2.933195 7.742289
7889 395 1 -0.708560 -2.962607 7.784837
7890 395 1 0.261440 -3.022804 7.631796
7891 395 1 1.231440 -2.988392 7.738071
7892 395 1 2.201440 -3.092506 7.726840
7893 395 1 3.171440 -3.085735 7.674656
7894 395 1 4.141440 -2.985884 7.637154
7895 395 1 5.111440 -2.946653 7.689218
7896 395 1 6.081440 -3.029694 7.699247
7897 395 1 7.051440 -2.952836 7.732193
7898 395 1 8.021440 -3.019638 7.634143
7899 395 1 8.991440 -2.936432 7.721330
7900 395 1 9.961440 -2.919944 7.632785
7901 396 1 3.971838 -9.183379 8.162129
7902 396 1 4.941838 -9.274109 8.296002
7903 396 1 5.911838 -9.315135 8.338542
7904 396 1 6.881838 -9.175293 8.160628
7905 396 1 7.851838 -9.306181 8.265807
7906 396 1 8.821838 -9.308581 8.228915
7907 396 1 9.791838 -9.196396 8.229056
7908 396 1 10.761838 -9.243034 8.270518
7909 396 1 11.731838 -9.325991 8.231974
7910 396 1 12.701838 -9.351624 8.172421
7911 396 1 13.671838 -9.322705 8.186892
7912 396 1 14.641838 -9.351262 8.241188
7913 396 1 15.611838 -9.318805 8.264134
7914 396 1 16.581838 -9.357196 8.317213
7915 396 1 17.551838 -9.327731 8.174264
7916 396 1 18.521838 -9.181458 8.260136
7917 396 1 19.491838 -9.217213 8.278939
7918 396 1 20.461838 -9.249835 8.159793
7919 396 1 21.431838 -9.200930 8.284752
7920 396 1 22.401838 -9.249677 8.150730
7921 397 1 -2.040733 -3.210657 5.572247
7922 397 1 -1.070733 -3.124490 5.390823
7923 397 1 -0.100733 -3.163012 5.457197
7924 397 1 0.869267 -3.154375 5.579259
7925 397 1 1.839267 -3.243169 5.403946
7926 397 1 2.809267 -3.241609 5.443776
7927 397 1 3.779267 -3.087724 5.475483
7928 397 1 4.749267 -3.085742 5.493436
7929 397 1 5.719267 -3.131332 5.523794
7930 397 1 6.689267 -3.114822 5.401998
7931 397 1 7.659267 -3.085840 5.476452
7932 397 1 8.629267 -3.224240 5.548285
7933 397 1 9.599267 -3.223009 5.541758
7934 397 1 10.569267 -3.067151 5.457659
7935 397 1 11.539267 -3.067297 5.412663
7936 397 1 12.509267 -3.210614 5.397934
7937 397 1 13.479267 -3.082356 5.516926
7938 397 1 14.449267 -3.055630 5.552044
7939 397 1 15.419267 -3.147934 5.422477
7940 397 1 16.389267 -3.102396 5.390844
7941 398 1 1.328891 -3.406671 -3.648877
7942 398 1 2.298891 -3.451011 -3.741139
7943 398 1 3.268891 -3.462492 -3.648593
7944 398 1 4.238891 -3.451792 -3.622373
7945 398 1 5.208891 -3.421221 -3.587034
7946 398 1 6.178891 -3.445524 -3.577404
7947 398 1 7.148891 -3.414162 -3.611205
7948 398 1 8.118891 -3.488782 -3.603626
7949 398 1 9.088891 -3.553780 -3.574796
7950 398 1 10.058891 -3.411066 -3.693076
7951 398 1 11.028891 -3.393176 -3.585805
7952 398 1 11.998891 -3.510346 -3.613798
7953 398 1 12.968891 -3.497745 -3.669213
7954 398 1 13.938891 -3.413101 -3.682464
7955 398 1 14.908891 -3.560709 -3.669495
7956 398 1 15.878891 -3.430488 -3.551217
7957 398 1 16.848891 -3.377956 -3.557269
7958 398 1 17.818891 -3.486955 -3.686038
7959 398 1 18.788891 -3.549500 -3.690166
7960 398 1 19.758891 -3.399700 -3.626185
7961 399 1 -5.643558 -0.489353 -9.956958
7962 399 1 -4.673558 -0.490033 -9.972096
7963 399 1 -3.703558 -0.479908 -9.833084
7964 399 1 -2.733558 -0.551079 -9.919818
7965 399 1 -1.763558 -0.506778 -9.826818
7966 399 1 -0.793558 -0.555099 -9.961131
7967 399 1 0.176442 -0.507543 -9.874834
7968 399 1 1.146442 -0.586433 -9.919868
7969 399 1 2.116442 -0.583919 -9.821553
7970 399 1 3.086442 -0.596818 -9.924079
7971 399 1 4.056442 -0.665982 -9.914454
7972 399 1 5.026442 -0.565546 -9.965244
7973 399 1 5.996442 -0.610354 -9.995041
7974 399 1 6.966442 -0.547330 -10.007635
7975 399 1 7.936442 -0.533188 -9.934052
7976 399 1 8.906442 -0.479094 -9.855014
7977 399 1 9.876442 -0.543413 -9.990604
7978 399 1 10.846442 -0.526428 -9.976697
7979 399 1 11.816442 -0.553070 -9.867578
7980 399 1 12.786442 -0.494701 -9.984133
7981 400 1 9.438496 -4.074390 -6.831749
7982 400 1 10.408496 -4.098494 -6.919784
7983 400 1 11.378496 -4.134199 -6.831340
7984 400 1 12.348496 -4.018449 -6.833812
7985 400 1 13.318496 -4.098914 -6.860157
7986 400 1 14.288496 -4.053925 -6.870601
7987 400 1 15.258496 -4.134289 -6.827868
7988 400 1 16.228496 -3.961240 -6.897349
7989 400 1 17.198496 -4.073333 -6.841424
7990 400 1 18.168496 -4.104512 -6.885971
7991 400 1 19.138496 -3.997143 -6.873681
7992 400 1 20.108496 -4.105418 -6.847570
7993 400 1 21.078496 -4.026341 -6.829454
7994 400 1 22.048496 -4.139336 -6.947191
7995 400 1 23.018496 -4.021097 -6.885233
7996 400 1 23.988496 -4.089529 -6.863663
7997 400 1 24.958496 -4.081653 -6.898556
7998 400 1 25.928496 -4.019495 -6.976276
7999 400 1 26.898496 -4.067541 -6.800282
8000 400 1 27.868496 -4.021620 -6.840333
8001 401 1 2.705402 1.317870 5.291183
8002 401 1 3.675402 1.324103 5.131131
8003 401 1 4.645402 1.344092 5.194775
8004 401 1 5.615402 1.298093 5.116781
8005 401 1 6.585402 1.380301 5.167360
8006 401 1 7.555402 1.308955 5.186895
8007 401 1 8.525402 1.384480 5.145343
8008 401 1 9.495402 1.360210 5.096660
8009 401 1 10.465402 1.306342 5.104115
8010 401 1 11.435402 1.393731 5.166171
8011 401 1 12.405402 1.306422 5.232726
8012 401 1 13.375402 1.296727 5.107912
8013 401 1 14.345402 1.308654 5.184411
8014 401 1 15.315402 1.322488 5.274840
8015 401 1 16.285402 1.453943 5.121969
8016 401 1 17.255402 1.369716 5.115366
8017 401 1 18.225402 1.400506 5.138868
8018 401 1 19.195402 1.337020 5.293002
8019 401 1 20.165402 1.307123 5.125722
8020 401 1 21.135402 1.275245 5.140126
8021 402 1 -2.329144 5.006799 2.361704
8022 402 1 -1.359144 4.949286 2.421875
8023 402 1 -0.389144 4.961340 2.419832
8024 402 1 0.580856 4.971460 2.340135
8025 402 1 1.550856 4.995243 2.491918
8026 402 1 2.520856 4.943214 2.348221
8027 402 1 3.490856 5.082865 2.396231
8028 402 1 4.460856 4.977195 2.420348
8029 402 1 5.430856 5.036169 2.488186
8030 402 1 6.400856 4.937205 2.475279
8031 402 1 7.370856 5.025459 2.477376
8032 402 1 8.340856 5.070459 2.489302
8033 402 1 9.310856 5.090212 2.491475
8034 402 1 10.280856 4.969130 2.415585
8035 402 1 11.250856 5.085675 2.387180
8036 402 1 12.220856 4.943008 2.487013
8037 402 1 13.190856 5.092677 2.490631
8038 402 1 14.160856 5.031834 2.365990
8039 402 1 15.130856 5.135825 2.411213
8040 402 1 16.100856 5.039498 2.421570
8041 403 1 2.512829 -7.676674 8.732314
8042 403 1 3.482829 -7.617994 8.784745
8043 403 1 4.452829 -7.524713 8.845546
8044 403 1 5.422829 -7.539925 8.814995
8045 403 1 6.392829 -7.610823 8.698295
8046 403 1 7.362829 -7.505732 8.729518
8047 403 1 8.332829 -7.563633 8.807286
8048 403 1 9.302829 -7.608602 8.833617
8049 403 1 10.272829 -7.597820 8.786130
8050 403 1 11.242829 -7.682884 8.676023
8051 403 1 12.212829 -7.526439 8.819887
8052 403 1 13.182829 -7.652014 8.812998
8053 403 1 14.152829 -7.646344 8.834246
8054 403 1 15.122829 -7.651251 8.730192
8055 403 1 16.092829 -7.638508 8.720816
8056 403 1 17.062829 -7.518798 8.823220
8057 403 1 18.032829 -7.621926 8.778042
8058 403 1 19.002829 -7.646373 8.697914
8059 403 1 19.972829 -7.632299 8.672009
8060 403 1 20.942829 -7.581292 8.824027
8061 404 1 -4.704352 1.849420 -0.481369
8062 404 1 -3.734352 1.950846 -0.542879
8063 404 1 -2.764352 1.842606 -0.624095
8064 404 1 -1.794352 1.902194 -0.646605
8065 404 1 -0.824352 1.869724 -0.512597
8066 404 1 0.145648 1.835599 -0.493664
8067 404 1 1.115648 1.941719 -0.493531
8068 404 1 2.085648 1.844911 -0.507034
8069 404 1 3.055648 1.932858 -0.537061
8070 404 1 4.025648 1.816404 -0.656986
8071 404 1 4.995648 1.832684 -0.505282
8072 404 1 5.965648 1.777542 -0.661816
8073 404 1 6.935648 1.949947 -0.627229
8074 404 1 7.905648 1.800593 -0.657849
8075 404 1 8.875648 1.872960 -0.648845
8076 404 1 9.845648 1.870296 -0.535337
8077 404 1 10.815648 1.917159 -0.499294
8078 404 1 11.785648 1.954347 -0.496501
8079 404 1 12.755648 1.872769 -0.616180
8080 404 1 13.725648 1.915004 -0.596548
8081 405 1 -7.319257 -5.853708 -4.036650
8082 405 1 -6.349257 -5.727092 -4.105214
8083 405 1 -5.379257 -5.849721 -3.944772
8084 405 1 -4.409257 -5.782225 -4.084949
8085 405 1 -3.439257 -5.796029 -4.050246
8086 405 1 -2.469257 -5.726040 -4.039682
8087 405 1 -1.499257 -5.719896 -4.054004
8088 405 1 -0.529257 -5.704865 -4.046593
8089 405 1 0.440743 -5.785457 -3.920394
8090 405 1 1.410743 -5.868004 -4.105959
8091 405 1 2.380743 -5.820184 -4.072628
8092 405 1 3.350743 -5.697424 -3.927848
8093 405 1 4.320743 -5.791749 -3.953499
8094 405 1 5.290743 -5.856439 -4.018257
8095 405 1 6.260743 -5.822354 -4.020359
8096 405 1 7.230743 -5.764649 -4.091504
8097 405 1 8.200743 -5.811072 -3.982238
8098 405 1 9.170743 -5.768448 -4.072236
8099 405 1 10.140743 -5.830472 -4.012446
8100 405 1 11.110743 -5.852987 -3.925469
8101 406 1 4.133684 9.265916 -4.464692
8102 406 1 5.103684 9.296445 -4.460537
8103 406 1 6.073684 9.219300 -4.382664
8104 406 1 7.043684 9.298110 -4.397374
8105 406 1 8.013684 9.299342 -4.527420
8106 406 1 8.983684 9.284710 -4.350812
8107 406 1 9.953684 9.403665 -4.533009
8108 406 1 10.923684 9.251233 -4.354094
8109 406 1 11.893684 9.263049 -4.380924
8110 406 1 12.863684 9.349264 -4.400797
8111 406 1 13.833684 9.279498 -4.465995
8112 406 1 14.803684 9.258004 -4.346962
8113 406 1 15.773684 9.395380 -4.448348
8114 406 1 16.743684 9.277397 -4.471477
8115 406 1 17.713684 9.237002 -4.396078
8116 406 1 18.683684 9.384543 -4.487429
8117 406 1 19.653684 9.376895 -4.460316
8118 406 1 20.623684 9.343084 -4.430668
8119 406 1 21.593684 9.380512 -4.349797
8120 406 1 22.563684 9.213200 -4.484643
8121 407 1 9.010920 3.038725 6.758161
8122 407 1 9.980920 3.224480 6.692644
8123 407 1 10.950920 3.114284 6.624051
8124 407 1 11.920920 3.189197 6.685674
8125 407 1 12.890920 3.161620 6.693679
8126 407 1 13.860920 3.085443 6.623117
8127 407 1 14.830920 3.196952 6.641334
8128 407 1 15.800920 3.053998 6.597008
8129 407 1 16.770920 3.050445 6.742533
8130 407 1 17.740920 3.065236 6.589151
8131 407 1 18.710920 3.224891 6.753783
8132 407 1 19.680920 3.195656 6.563784
8133 407 1 20.650920 3.178421 6.752869
8134 407 1 21.620920 3.201178 6.715514
8135 407 1 22.590920 3.124403 6.602654
8136 407 1 23.560920 3.073053 6.725132
8137 407 1 24.530920 3.146220 6.622162
8138 407 1 25.500920 3.132077 6.623465
8139 407 1 26.470920 3.212625 6.722017
8140 407 1 27.440920 3.217769 6.701004
8141 408 1 -5.296866 -3.014141 -1.310890
8142 408 1 -4.326866 -3.066543 -1.290072
8143 408 1 -3.356866 -2.910480 -1.252965
8144 408 1 -2.386866 -3.039729 -1.315203
8145 408 1 -1.416866 -3.094456 -1.340157
8146 408 1 -0.446866 -3.057629 -1.355240
8147 408 1 0.523134 -2.982507 -1.201812
8148 408 1 1.493134 -2.943273 -1.202406
8149 408 1 2.463134 -2.950609 -1.375873
8150 408 1 3.433134 -2.965633 -1.321179
8151 408 1 4.403134 -3.027374 -1.269526
8152 408 1 5.373134 -2.999546 -1.391405
8153 408 1 6.343134 -3.019108 -1.264974
8154 408 1 7.313134 -3.096586 -1.281885
8155 408 1 8.283134 -3.065206 -1.387916
8156 408 1 9.253134 -2.981886 -1.355945
8157 408 1 10.223134 -2.949571 -1.278720
8158 408 1 11.193134 -2.903623 -1.368502
8159 408 1 12.163134 -2.994228 -1.249788
8160 408 1 13.133134 -3.039961 -1.305325
8161 409 1 -8.097365 7.529548 -0.361869
8162 409 1 -7.127365 7.718729 -0.379000
8163 409 1 -6.157365 7.569068 -0.314750
8164 409 1 -5.187365 7.653716 -0.205645
8165 409 1 -4.217365 7.597157 -0.324223
8166 409 1 -3.247365 7.603020 -0.277216
8167 409 1 -2.277365 7.673248 -0.322675
8168 409 1 -1.307365 7.690717 -0.209432
8169 409 1 -0.337365 7.604856 -0.249748
8170 409 1 0.632635 7.555428 -0.220070
8171 409 1 1.602635 7.623521 -0.378715
8172 409 1 2.572635 7.538234 -0.244760
8173 409 1 3.542635 7.613624 -0.357859
8174 409 1 4.512635 7.697948 -0.326698
8175 409 1 5.482635 7.543825 -0.349133
8176 409 1 6.452635 7.622940 -0.336295
8177 409 1 7.422635 7.664351 -0.229595
8178 409 1 8.392635 7.682494 -0.383850
8179 409 1 9.362635 7.717231 -0.261574
8180 409 1 10.332635 7.567111 -0.312037
8181 410 1 -1.159876 5.713694 4.381607
8182 410 1 -0.189876 5.772290 4.376987
8183 410 1 0.780124 5.840287 4.365170
8184 410 1 1.750124 5.672813 4.340111
8185 410 1 2.720124 5.796966 4.403906
8186 410 1 3.690124 5.699560 4.311743
8187 410 1 4.660124 5.806876 4.208576
8188 410 1 5.630124 5.767140 4.315030
8189 410 1 6.600124 5.727822 4.311506
8190 410 1 7.570124 5.756952 4.358618
8191 410 1 8.540124 5.790870 4.331624
8192 410 1 9.510124 5.736692 4.365774
8193 410 1 10.480124 5.742085 4.291509
8194 410 1 11.450124 5.668122 4.259296
8195 410 1 12.420124 5.842382 4.265334
8196 410 1 13.390124 5.779842 4.209882
8197 410 1 14.360124 5.661306 4.266006
8198 410 1 15.330124 5.799688 4.403609
8199 410 1 16.300124 5.837523 4.401249
8200 410 1 17.270124 5.772500 4.268350
8201 411 1 3.012115 4.558860 -8.520895
8202 411 1 3.982115 4.385947 -8.443465
8203 411 1 4.952115 4.372704 -8.434137
8204 411 1 5.922115 4.497437 -8.493308
8205 411 1 6.892115 4.464561 -8.426734
8206 411 1 7.862115 4.525124 -8.417207
8207 411 1 8.832115 4.565142 -8.528410
8208 411 1 9.802115 4.469773 -8.455998
8209 411 1 10.772115 4.483347 -8.581448
8210 411 1 11.742115 4.546192 -8.462197
8211 411 1 12.712115 4.504495 -8.490036
8212 411 1 13.682115 4.427573 -8.410023
8213 411 1 14.652115 4.404300 -8.430976
8214 411 1 15.622115 4.521509 -8.548161
8215 411 1 16.592115 4.525882 -8.555950
8216 411 1 17.562115 4.491366 -8.489917
8217 411 1 18.532115 4.477811 -8.422234
8218 411 1 19.502115 4.532255 -8.510491
8219 411 1 20.472115 4.435144 -8.407969
8220 411 1 21.442115 4.489064 -8.448978
8221 412 1 8.892684 2.751196 -2.833210
8222 412 1 9.862684 2.648653 -2.794394
8223 412 1 10.832684 2.567765 -2.935141
8224 412 1 11.802684 2.580574 -2.929874
8225 412 1 12.772684 2.664368 -2.818353
8226 412 1 13.742684 2.600724 -2.809559
8227 412 1 14.712684 2.593923 -2.891229
8228 412 1 15.682684 2.606974 -2.858182
8229 412 1 16.652684 2.738488 -2.830332
8230 412 1 17.622684 2.561586 -2.870962
8231 412 1 18.592684 2.647742 -2.966648
8232 412 1 19.562684 2.613486 -2.932387
8233 412 1 20.532684 2.592582 -2.946994
8234 412 1 21.502684 2.578033 -2.859201
8235 412 1 22.472684 2.732697 -2.946685
8236 412 1 23.442684 2.639291 -2.852130
8237 412 1 24.412684 2.625274 -2.973780
8238 412 1 25.382684 2.712369 -2.825911
8239 412 1 26.352684 2.573916 -2.801212
8240 412 1 27.322684 2.554942 -2.800294
8241 413 1 -5.681205 7.114681 8.192072
8242 413 1 -4.711205 7.135022 8.019544
8243 413 1 -3.741205 7.078482 8.175408
8244 413 1 -2.771205 7.041357 8.068163
8245 413 1 -1.801205 7.100722 8.118864
8246 413 1 -0.831205 7.089372 8.027992
8247 413 1 0.138795 6.993009 8.134766
8248 413 1 1.108795 7.140913 8.069598
8249 413 1 2.078795 7.108676 8.192806
8250 413 1 3.048795 7.170970 8.165631
8251 413 1 4.018795 7.159928 8.173359
8252 413 1 4.988795 7.074529 8.071331
8253 413 1 5.958795 7.079604 8.032843
8254 413 1 6.928795 7.139656 8.156221
8255 413 1 7.898795 7.091895 8.191663
8256 413 1 8.868795 7.137957 8.174942
8257 413 1 9.838795 6.987068 8.107096
8258 413 1 10.808795 7.151555 8.104911
8259 413 1 11.778795 7.176827 8.200340
8260 413 1 12.748795 6.997956 8.200022
8261 414 1 -4.495724 0.715214 -4.739028
8262 414 1 -3.525724 0.847961 -4.771718
8263 414 1 -2.555724 0.835899 -4.816880
8264 414 1 -1.585724 0.681179 -4.678549
8265 414 1 -0.615724 0.807636 -4.829366
8266 414 1 0.354276 0.728974 -4.783311
8267 414 1 1.324276 0.790148 -4.754851
8268 414 1 2.294276 0.774048 -4.739540
8269 414 1 3.264276 0.743201 -4.697326
8270 414 1 4.234276 0.800742 -4.635033
8271 414 1 5.204276 0.678346 -4.737798
8272 414 1 6.174276 0.835954 -4.772104
8273 414 1 7.144276 0.709275 -4.642884
8274 414 1 8.114276 0.785944 -4.643576
8275 414 1 9.084276 0.702557 -4.778416
8276 414 1 10.054276 0.862806 -4.681685
8277 414 1 11.024276 0.784709 -4.696815
8278 414 1 11.994276 0.675410 -4.720864
8279 414 1 12.964276 0.758601 -4.686244
8280 414 1 13.934276 0.766425 -4.689438
8281 415 1 6.024097 0.403985 -6.094537
8282 415 1 6.994097 0.476637 -6.100396
8283 415 1 7.964097 0.582831 -6.243376
8284 415 1 8.934097 0.538102 -6.083314
8285 415 1 9.904097 0.442655 -6.158335
8286 415 1 10.874097 0.548957 -6.115818
8287 415 1 11.844097 0.543876 -6.082485
8288 415 1 12.814097 0.464466 -6.068799
8289 415 1 13.784097 0.532837 -6.191043
8290 415 1 14.754097 0.423157 -6.220039
8291 415 1 15.724097 0.473128 -6.059118
8292 415 1 16.694097 0.419536 -6.177641
8293 415 1 17.664097 0.506405 -6.098614
8294 415 1 18.634097 0.410972 -6.067192
8295 415 1 19.604097 0.453287 -6.156715
8296 415 1 20.574097 0.551928 -6.220769
8297 415 1 21.544097 0.471499 -6.224254
8298 415 1 22.514097 0.391447 -6.218551
8299 415 1 23.484097 0.412857 -6.181519
8300 415 1 24.454097 0.496681 -6.157571
8301 416 1 3.555334 3.140273 5.591776
8302 416 1 4.525334 3.077295 5.594476
8303 416 1 5.495334 3.149562 5.540169
8304 416 1 6.465334 3.060741 5.527323
8305 416 1 7.435334 3.151612 5.589039
8306 416 1 8.405334 3.078690 5.559352
8307 416 1 9.375334 3.132526 5.494998
8308 416 1 10.345334 3.090215 5.562604
8309 416 1 11.315334 3.129380 5.536737
8310 416 1 12.285334 3.010075 5.603756
8311 416 1 13.255334 3.106762 5.505289
8312 416 1 14.225334 3.149627 5.518706
8313 416 1 15.195334 3.069586 5.604422
8314 416 1 16.165334 3.134719 5.459987
8315 416 1 17.135334 3.040661 5.512506
8316 416 1 18.105334 2.999000 5.459530
8317 416 1 19.075334 3.112434 5.477231
8318 416 1 20.045334 3.079217 5.460015
8319 416 1 21.015334 3.120527 5.471533
8320 416 1 21.985334 3.093898 5.462521
8321 417 1 -6.870077 -1.070214 -0.268930
8322 417 1 -5.900077 -0.967117 -0.395613
8323 417 1 -4.930077 -0.876300 -0.373583
8324 417 1 -3.960077 -0.910629 -0.311403
8325 417 1 -2.990077 -1.007508 -0.239076
8326 417 1 -2.020077 -0.888752 -0.370083
8327 417 1 -1.050077 -0.944304 -0.228762
8328 417 1 -0.080077 -1.000883 -0.330399
8329 417 1 0.889923 -0.901664 -0.294498
8330 417 1 1.859923 -0.941262 -0.403699
8331 417 1 2.829923 -0.994721 -0.223124
8332 417 1 3.799923 -0.982490 -0.366868
8333 417 1 4.769923 -0.889375 -0.266227
8334 417 1 5.739923 -0.876137 -0.273999
8335 417 1 6.709923 -0.998159 -0.373877
8336 417 1 7.679923 -1.032167 -0.285576
8337 417 1 8.649923 -1.044604 -0.368097
8338 417 1 9.619923 -1.022583 -0.254465
8339 417 1 10.589923 -1.020167 -0.298992
8340 417 1 11.559923 -0.913739 -0.369598
8341 418 1 -6.220050 1.911283 5.421218
8342 418 1 -5.250050 2.046239 5.495274
8343 418 1 -4.280050 1.965684 5.473506
8344 418 1 -3.310050 2.055671 5.471363
8345 418 1 -2.340050 1.891806 5.381565
8346 418 1 -1.370050 2.085093 5.439082
8347 418 1 -0.400050 1.895212 5.371913
8348 418 1 0.569950 1.966799 5.375222
8349 418 1 1.539950 1.934593 5.496111
8350 418 1 2.509950 1.920910 5.460170
8351 418 1 3.479950 1.907623 5.406952
8352 418 1 4.449950 1.959989 5.361981
8353 418 1 5.419950 1.896940 5.390563
8354 418 1 6.389950 1.924435 5.389961
8355 418 1 7.359950 1.940165 5.319200
8356 418 1 8.329950 2.041119 5.408902
8357 418 1 9.299950 1.913455 5.482080
8358 418 1 10.269950 1.987605 5.429020
8359 418 1 11.239950 2.054898 5.324747
8360 418 1 12.209950 1.979175 5.335820
8361 419 1 4.020952 -4.689500 1.497535
8362 419 1 4.990952 -4.509831 1.328416
8363 419 1 5.960952 -4.575380 1.427333
8364 419 1 6.930952 -4.578225 1.402237
8365 419 1 7.900952 -4.628225 1.497397
8366 419 1 8.870952 -4.506416 1.486462
8367 419 1 9.840952 -4.533567 1.393927
8368 419 1 10.810952 -4.610283 1.373431
8369 419 1 11.780952 -4.510796 1.434636
8370 419 1 12.750952 -4.538075 1.339615
8371 419 1 13.720952 -4.590740 1.312666
8372 419 1 14.690952 -4.629856 1.502755
8373 419 1 15.660952 -4.572067 1.332286
8374 419 1 16.630952 -4.556901 1.427197
8375 419 1 17.600952 -4.577697 1.409824
8376 419 1 18.570952 -4.653724 1.445132
8377 419 1 19.540952 -4.642464 1.331531
8378 419 1 20.510952 -4.663953 1.377913
8379 419 1 21.480952 -4.564754 1.348177
8380 419 1 22.450952 -4.593259 1.452998
8381 420 1 4.570263 0.533647 -2.474505
8382 420 1 5.540263 0.525658 -2.551984
8383 420 1 6.510263 0.508179 -2.553254
8384 420 1 7.480263 0.617425 -2.542156
8385 420 1 8.450263 0.516224 -2.578607
8386 420 1 9.420263 0.658767 -2.563352
8387 420 1 10.390263 0.695194 -2.403312
8388 420 1 11.360263 0.503706 -2.419527
8389 420 1 12.330263 0.504153 -2.520812
8390 420 1 13.300263 0.591924 -2.575535
8391 420 1 14.270263 0.698731 -2.582496
8392 420 1 15.240263 0.514486 -2.472196
8393 420 1 16.210263 0.682578 -2.477664
8394 420 1 17.180263 0.664803 -2.481377
8395 420 1 18.150263 0.587128 -2.569246
8396 420 1 19.120263 0.510807 -2.557560
8397 420 1 20.090263 0.545511 -2.570111
8398 420 1 21.060263 0.523483 -2.508104
8399 420 1 22.030263 0.517002 -2.422690
8400 420 1 23.000263 0.564296 -2.509793
8401 421 1 7.352845 4.672426 -9.140246
8402 421 1 8.322845 4.668403 -9.129087
8403 421 1 9.292845 4.648081 -9.143535
8404 421 1 10.262845 4.662829 -9.200954
8405 421 1 11.232845 4.683603 -9.198798
8406 421 1 12.202845 4.781390 -9.130215
8407 421 1 13.172845 4.612965 -9.267763
8408 421 1 14.142845 4.684053 -9.099161
8409 421 1 15.112845 4.687676 -9.263729
8410 421 1 16.082845 4.620481 -9.139823
8411 421 1 17.052845 4.639622 -9.090667
8412 421 1 18.022845 4.714077 -9.073420
8413 421 1 18.992845 4.741951 -9.123308
8414 421 1 19.962845 4.763523 -9.232662
8415 421 1 20.932845 4.750650 -9.154933
8416 421 1 21.902845 4.654333 -9.099090
8417 421 1 22.872845 4.618868 -9.159864
8418 421 1 23.842845 4.693695 -9.127373
8419 421 1 24.812845 4.649731 -9.182768
8420 421 1 25.782845 4.684932 -9.134045
8421 422 1 0.920765 4.255608 -4.658445
8422 422 1 1.890765 4.374861 -4.600658
8423 422 1 2.860765 4.277928 -4.650178
8424 422 1 3.830765 4.370656 -4.687315
8425 422 1 4.800765 4.225337 -4.679722
8426 422 1 5.770765 4.258996 -4.758352
8427 422 1 6.740765 4.264558 -4.631799
8428 422 1 7.710765 4.287880 -4.773625
8429 422 1 8.680765 4.347915 -4.733840
8430 422 1 9.650765 4.206975 -4.770350
8431 422 1 10.620765 4.271919 -4.715130
8432 422 1 11.590765 4.375326 -4.606204
8433 422 1 12.560765 4.387458 -4.699671
8434 422 1 13.530765 4.392920 -4.773208
8435 422 1 14.500765 4.279517 -4.680433
8436 422 1 15.470765 4.281818 -4.762284
8437 422 1 16.440765 4.398922 -4.745528
8438 422 1 17.410765 4.349354 -4.649772
8439 422 1 18.380765 4.327423 -4.726537
8440 422 1 19.350765 4.388009 -4.685594
8441 423 1 -9.517844 -9.072295 6.294295
8442 423 1 -8.547844 -9.109410 6.331326
8443 423 1 -7.577844 -9.080062 6.352155
8444 423 1 -6.607844 -9.075118 6.295628
8445 423 1 -5.637844 -9.178236 6.207931
8446 423 1 -4.667844 -9.151218 6.357768
8447 423 1 -3.697844 -9.219943 6.347309
8448 423 1 -2.727844 -9.220369 6.371182
8449 423 1 -1.757844 -9.116703 6.273224
8450 423 1 -0.787844 -9.236164 6.230005
8451 423 1 0.182156 -9.073291 6.245416
8452 423 1 1.152156 -9.065992 6.373534
8453 423 1 2.122156 -9.114997 6.215621
8454 423 1 3.092156 -9.163627 6.347932
8455 423 1 4.062156 -9.071437 6.362390
8456 423 1 5.032156 -9.177530 6.266197
8457 423 1 6.002156 -9.140597 6.187717
8458 423 1 6.972156 -9.159047 6.324041
8459 423 1 7.942156 -9.144282 6.295323
8460 423 1 8.912156 -9.208349 6.348507
8461 424 1 -4.958325 -1.414225 5.539608
8462 424 1 -3.988325 -1.362402 5.687841
8463 424 1 -3.018325 -1.336161 5.659822
8464 424 1 -2.048325 -1.457028 5.711339
8465 424 1 -1.078325 -1.328639 5.538471
8466 424 1 -0.108325 -1.462986 5.533442
8467 424 1 0.861675 -1.425124 5.693710
8468 424 1 1.831675 -1.395003 5.598237
8469 424 1 2.801675 -1.460557 5.719798
8470 424 1 3.771675 -1.303666 5.691365
8471 424 1 4.741675 -1.368808 5.674659
8472 424 1 5.711675 -1.420223 5.614788
8473 424 1 6.681675 -1.294801 5.709948
8474 424 1 7.651675 -1.322327 5.584821
8475 424 1 8.621675 -1.428550 5.633957
8476 424 1 9.591675 -1.479257 5.569850
8477 424 1 10.561675 -1.469257 5.567510
8478 424 1 11.531675 -1.432838 5.574421
8479 424 1 12.501675 -1.328068 5.600183
8480 424 1 13.471675 -1.302564 5.673132
8481 425 1 2.027433 -2.228964 -6.921424
8482 425 1 2.997433 -2.237630 -6.933989
8483 425 1 3.967433 -2.235760 -6.828712
8484 425 1 4.937433 -2.192569 -6.800837
8485 425 1 5.907433 -2.070901 -6.789714
8486 425 1 6.877433 -2.260070 -6.875819
8487 425 1 7.847433 -2.113706 -6.920414
8488 425 1 8.817433 -2.122956 -6.930763
8489 425 1 9.787433 -2.183975 -6.858801
8490 425 1 10.757433 -2.214206 -6.815391
8491 425 1 11.727433 -2.232499 -6.845064
8492 425 1 12.697433 -2.164515 -6.792648
8493 425 1 13.667433 -2.114696 -6.916752
8494 425 1 14.637433 -2.224399 -6.868525
8495 425 1 15.607433 -2.108349 -6.776417
8496 425 1 16.577433 -2.214906 -6.836248
8497 425 1 17.547433 -2.115228 -6.905487
8498 425 1 18.517433 -2.237841 -6.772376
8499 425 1 19.487433 -2.231759 -6.861717
8500 425 1 20.457433 -2.143306 -6.820619
8501 426 1 5.680048 3.096152 6.107520
8502 426 1 6.650048 3.084069 6.212929
8503 426 1 7.620048 3.032283 6.151431
8504 426 1 8.590048 3.015579 6.181236
8505 426 1 9.560048 3.140516 6.149266
8506 426 1 10.530048 3.066299 6.102927
8507 426 1 11.500048 3.202655 6.132305
8508 426 1 12.470048 3.118355 6.221016
8509 426 1 13.440048 3.133639 6.221109
8510 426 1 14.410048 3.051328 6.232998
8511 426 1 15.380048 3.143854 6.199205
8512 426 1 16.350048 3.089093 6.208782
8513 426 1 17.320048 3.124744 6.233232
8514 426 1 18.290048 3.076929 6.215997
8515 426 1 19.260048 3.011141 6.066627
8516 426 1 20.230048 3.053212 6.257202
8517 426 1 21.200048 3.030714 6.065537
8518 426 1 22.170048 3.063829 6.235086
8519 426 1 23.140048 3.017678 6.068584
8520 426 1 24.110048 3.043835 6.116805
8521 427 1 -0.865701 -9.159268 3.641622
8522 427 1 0.104299 -9.053467 3.627605
8523 427 1 1.074299 -9.076624 3.676318
8524 427 1 2.044299 -9.004260 3.674740
8525 427 1 3.014299 -8.982811 3.752810
8526 427 1 3.984299 -9.021333 3.672194
8527 427 1 4.954299 -8.985961 3.735966
8528 427 1 5.924299 -9.027607 3.758443
8529 427 1 6.894299 -9.003110 3.764190
8530 427 1 7.864299 -9.123852 3.688443
8531 427 1 8.834299 -8.996619 3.752158
8532 427 1 9.804299 -9.091568 3.719082
8533 427 1 10.774299 -9.160368 3.608379
8534 427 1 11.744299 -9.058115 3.694463
8535 427 1 12.714299 -9.090007 3.717361
8536 427 1 13.684299 -9.098615 3.716884
8537 427 1 14.654299 -9.051636 3.649869
8538 427 1 15.624299 -9.142349 3.670898
8539 427 1 16.594299 -9.045423 3.757059
8540 427 1 17.564299 -8.989229 3.611335
8541 428 1 1.744791 -3.930067 5.132606
8542 428 1 2.714791 -3.872554 5.070949
8543 428 1 3.684791 -3.952817 5.096280
8544 428 1 4.654791 -3.898630 5.054003
8545 428 1 5.624791 -3.910347 5.165926
8546 428 1 6.594791 -3.927125 5.074272
8547 428 1 7.564791 -3.901428 5.027564
8548 428 1 8.534791 -3.978184 5.058518
8549 428 1 9.504791 -3.854234 5.031613
8550 428 1 10.474791 -3.955553 5.047450
8551 428 1 11.444791 -3.980724 5.047217
8552 428 1 12.414791 -3.840057 5.010491
8553 428 1 13.384791 -3.906428 5.004236
8554 428 1 14.354791 -4.022276 5.185807
8555 428 1 15.324791 -3.872633 5.096233
8556 428 1 16.294791 -3.848165 5.142093
8557 428 1 17.264791 -3.973905 5.180369
8558 428 1 18.234791 -3.860878 5.086193
8559 428 1 19.204791 -3.950632 5.187982
8560 428 1 20.174791 -4.016458 5.139152
8561 429 1 0.234806 -2.663359 -5.195273
8562 429 1 1.204806 -2.791845 -5.291953
8563 429 1 2.174806 -2.667592 -5.191137
8564 429 1 3.144806 -2.783119 -5.181755
8565 429 1 4.114806 -2.787675 -5.255584
8566 429 1 5.084806 -2.695612 -5.275043
8567 429 1 6.054806 -2.838408 -5.314306
8568 429 1 7.024806 -2.690099 -5.197443
8569 429 1 7.994806 -2.728954 -5.228990
8570 429 1 8.964806 -2.734278 -5.234438
8571 429 1 9.934806 -2.813116 -5.150648
8572 429 1 10.904806 -2.758978 -5.326306
8573 429 1 11.874806 -2.769050 -5.157974
8574 429 1 12.844806 -2.853523 -5.227698
8575 429 1 13.814806 -2.696622 -5.252147
8576 429 1 14.784806 -2.802481 -5.218901
8577 429 1 15.754806 -2.793562 -5.149719
8578 429 1 16.724806 -2.668404 -5.273408
8579 429 1 17.694806 -2.801272 -5.218494
8580 429 1 18.664806 -2.751797 -5.268543
8581 430 1 -2.184841 9.401852 -7.139056
8582 430 1 -1.214841 9.432446 -7.192900
8583 430 1 -0.244841 9.405928 -7.128527
8584 430 1 0.725159 9.357834 -7.259475
8585 430 1 1.695159 9.534805 -7.158016
8586 430 1 2.665159 9.395277 -7.261800
8587 430 1 3.635159 9.364002 -7.265504
8588 430 1 4.605159 9.419139 -7.128576
8589 430 1 5.575159 9.511824 -7.256842
8590 430 1 6.545159 9.391802 -7.188873
8591 430 1 7.515159 9.378717 -7.229664
8592 430 1 8.485159 9.514778 -7.281954
8593 430 1 9.455159 9.512739 -7.233485
8594 430 1 10.425159 9.398267 -7.167063
8595 430 1 11.395159 9.461112 -7.149080
8596 430 1 12.365159 9.496634 -7.270510
8597 430 1 13.335159 9.346257 -7.126582
8598 430 1 14.305159 9.528945 -7.267921
8599 430 1 15.275159 9.395160 -7.183978
8600 430 1 16.245159 9.357664 -7.166081
8601 431 1 4.548754 -6.748215 2.741424
8602 431 1 5.518754 -6.711303 2.780460
8603 431 1 6.488754 -6.619635 2.734429
8604 431 1 7.458754 -6.609390 2.857608
8605 431 1 8.428754 -6.750155 2.721446
8606 431 1 9.398754 -6.682112 2.733805
8607 431 1 10.368754 -6.601237 2.716639
8608 431 1 11.338754 -6.642489 2.803768
8609 431 1 12.308754 -6.608585 2.813549
8610 431 1 13.278754 -6.646399 2.794557
8611 431 1 14.248754 -6.617051 2.744729
8612 431 1 15.218754 -6.741050 2.669739
8613 431 1 16.188754 -6.610139 2.835611
8614 431 1 17.158754 -6.626708 2.694506
8615 431 1 18.128754 -6.695836 2.707601
8616 431 1 19.098754 -6.734521 2.676817
8617 431 1 20.068754 -6.632319 2.706715
8618 431 1 21.038754 -6.736939 2.829445
8619 431 1 22.008754 -6.663124 2.683823
8620 431 1 22.978754 -6.763775 2.673980
8621 432 1 -5.482598 7.781788 0.236762
8622 432 1 -4.512598 7.734864 0.259342
8623 432 1 -3.542598 7.783703 0.205407
8624 432 1 -2.572598 7.806358 0.164159
8625 432 1 -1.602598 7.700813 0.213818
8626 432 1 -0.632598 7.750300 0.169183
8627 432 1 0.337402 7.713602 0.188115
8628 432 1 1.307402 7.773187 0.180880
8629 432 1 2.277402 7.819964 0.146146
8630 432 1 3.247402 7.688888 0.255811
8631 432 1 4.217402 7.813837 0.279627
8632 432 1 5.187402 7.629166 0.271807
8633 432 1 6.157402 7.679077 0.145699
8634 432 1 7.127402 7.672411 0.235878
8635 432 1 8.097402 7.704485 0.161460
8636 432 1 9.067402 7.632121 0.215531
8637 432 1 10.037402 7.738845 0.289685
8638 432 1 11.007402 7.809994 0.158551
8639 432 1 11.977402 7.803281 0.184299
8640 432 1 12.947402 7.757513 0.183265
8641 433 1 0.215994 2.863075 -5.524489
8642 433 1 1.185994 2.989629 -5.586980
8643 433 1 2.155994 2.934453 -5.462133
8644 433 1 3.125994 2.938459 -5.469703
8645 433 1 4.095994 3.008148 -5.540622
8646 433 1 5.065994 2.896802 -5.415279
8647 433 1 6.035994 2.847916 -5.452950
8648 433 1 7.005994 2.953764 -5.453794
8649 433 1 7.975994 2.830427 -5.511986
8650 433 1 8.945994 2.970090 -5.414849
8651 433 1 9.915994 2.957210 -5.463640
8652 433 1 10.885994 2.937276 -5.439472
8653 433 1 11.855994 2.912040 -5.463081
8654 433 1 12.825994 2.970188 -5.577986
8655 433 1 13.795994 2.826945 -5.444247
8656 433 1 14.765994 2.853106 -5.604317
8657 433 1 15.735994 2.982320 -5.594843
8658 433 1 16.705994 2.977187 -5.531611
8659 433 1 17.675994 2.838093 -5.466545
8660 433 1 18.645994 2.899585 -5.490668
8661 434 1 -7.829451 8.341433 6.401345
8662 434 1 -6.859451 8.159627 6.336390
8663 434 1 -5.889451 8.339928 6.509342
8664 434 1 -4.919451 8.164329 6.349571
8665 434 1 -3.949451 8.284818 6.515827
8666 434 1 -2.979451 8.180455 6.444581
8667 434 1 -2.009451 8.343711 6.488783
8668 434 1 -1.039451 8.283278 6.516206
8669 434 1 -0.069451 8.330424 6.360930
8670 434 1 0.900549 8.167430 6.473214
8671 434 1 1.870549 8.229030 6.357679
8672 434 1 2.840549 8.213762 6.510746
8673 434 1 3.810549 8.207726 6.474421
8674 434 1 4.780549 8.184350 6.484998
8675 434 1 5.750549 8.354006 6.528072
8676 434 1 6.720549 8.157655 6.529980
8677 434 1 7.690549 8.343390 6.404048
8678 434 1 8.660549 8.265754 6.394409
8679 434 1 9.630549 8.198386 6.383044
8680 434 1 10.600549 8.238481 6.429723
8681 435 1 9.490593 9.911362 4.337624
8682 435 1 10.460593 10.008965 4.416363
8683 435 1 11.430593 9.933247 4.370822
8684 435 1 12.400593 9.897291 4.355377
8685 435 1 13.370593 9.838926 4.447387
8686 435 1 14.340593 10.019354 4.471644
8687 435 1 15.310593 9.932248 4.505515
8688 435 1 16.280593 9.973853 4.336668
8689 435 1 17.250593 9.938440 4.453662
8690 435 1 18.220593 9.962172 4.450042
8691 435 1 19.190593 9.951665 4.469646
8692 435 1 20.160593 9.860922 4.428953
8693 435 1 21.130593 10.035369 4.502265
8694 435 1 22.100593 10.006415 4.490688
8695 435 1 23.070593 9.850326 4.375722
8696 435 1 24.040593 10.008745 4.390952
8697 435 1 25.010593 9.910566 4.375673
8698 435 1 25.980593 9.987881 4.333932
8699 435 1 26.950593 9.957885 4.374652
8700 435 1 27.920593 9.983777 4.430228
8701 436 1 0.763974 2.521705 0.799937
8702 436 1 1.733974 2.520464 0.902454
8703 436 1 2.703974 2.456506 0.751217
8704 436 1 3.673974 2.481565 0.923741
8705 436 1 4.643974 2.516171 0.807968
8706 436 1 5.613974 2.595892 0.797756
8707 436 1 6.583974 2.576143 0.856946
8708 436 1 7.553974 2.565759 0.770146
8709 436 1 8.523974 2.499571 0.811628
8710 436 1 9.493974 2.499075 0.806396
8711 436 1 10.463974 2.497318 0.820314
8712 436 1 11.433974 2.611725 0.816713
8713 436 1 12.403974 2.620697 0.870679
8714 436 1 13.373974 2.536275 0.811184
8715 436 1 14.343974 2.474402 0.845964
8716 436 1 15.313974 2.557422 0.873868
8717 436 1 16.283974 2.645188 0.741040
8718 436 1 17.253974 2.476206 0.900663
8719 436 1 18.223974 2.464804 0.756670
8720 436 1 19.193974 2.490716 0.892099
8721 437 1 -8.964702 1.556979 -3.874829
8722 437 1 -7.994702 1.505412 -3.914376
8723 437 1 -7.024702 1.629665 -3.854115
8724 437 1 -6.054702 1.549120 -3.856523
8725 437 1 -5.084702 1.596663 -3.940833
8726 437 1 -4.114702 1.600601 -3.909234
8727 437 1 -3.144702 1.687072 -3.939385
8728 437 1 -2.174702 1.564473 -3.830606
8729 437 1 -1.204702 1.693470 -3.750719
8730 437 1 -0.234702 1.663739 -3.914553
8731 437 1 0.735298 1.614685 -3.781092
8732 437 1 1.705298 1.590975 -3.757290
8733 437 1 2.675298 1.575409 -3.855178
8734 437 1 3.645298 1.562728 -3.833183
8735 437 1 4.615298 1.660025 -3.943458
8736 437 1 5.585298 1.545931 -3.857824
8737 437 1 6.555298 1.642470 -3.803612
8738 437 1 7.525298 1.508238 -3.850346
8739 437 1 8.495298 1.531463 -3.909640
8740 437 1 9.465298 1.536061 -3.800723
8741 438 1 -5.163130 5.116077 9.382819
8742 438 1 -4.193130 5.076252 9.372162
8743 438 1 -3.223130 5.230934 9.238839
8744 438 1 -2.253130 5.209714 9.360299
8745 438 1 -1.283130 5.199953 9.288650
8746 438 1 -0.313130 5.080030 9.209961
8747 438 1 0.656870 5.129999 9.377811
8748 438 1 1.626870 5.243297 9.205795
8749 438 1 2.596870 5.088747 9.259514
8750 438 1 3.566870 5.169641 9.208186
8751 438 1 4.536870 5.131031 9.329830
8752 438 1 5.506870 5.120011 9.293303
8753 438 1 6.476870 5.074287 9.305189
8754 438 1 7.446870 5.104654 9.270085
8755 438 1 8.416870 5.082004 9.253676
8756 438 1 9.386870 5.165626 9.205697
8757 438 1 10.356870 5.165542 9.229903
8758 438 1 11.326870 5.103097 9.272468
8759 438 1 12.296870 5.116555 9.231032
8760 438 1 13.266870 5.261902 9.328450
8761 439 1 5.662684 -1.386522 0.377444
8762 439 1 6.632684 -1.409180 0.249881
8763 439 1 7.602684 -1.410876 0.235999
8764 439 1 8.572684 -1.549681 0.225045
8765 439 1 9.542684 -1.533547 0.241042
8766 439 1 10.512684 -1.472097 0.328323
8767 439 1 11.482684 -1.507684 0.401879
8768 439 1 12.452684 -1.540137 0.319143
8769 439 1 13.422684 -1.477713 0.255917
8770 439 1 14.392684 -1.447391 0.389677
8771 439 1 15.362684 -1.555170 0.342874
8772 439 1 16.332684 -1.517401 0.342586
8773 439 1 17.302684 -1.562492 0.323618
8774 439 1 18.272684 -1.540856 0.376817
8775 439 1 19.242684 -1.416647 0.266752
8776 439 1 20.212684 -1.398629 0.244401
8777 439 1 21.182684 -1.538942 0.318838
8778 439 1 22.152684 -1.408616 0.242534
8779 439 1 23.122684 -1.556411 0.307211
8780 439 1 24.092684 -1.477102 0.394061
8781 440 1 -2.343974 -9.623923 5.565513
8782 440 1 -1.373974 -9.618592 5.601034
8783 440 1 -0.403974 -9.539239 5.646849
8784 440 1 0.566026 -9.634345 5.556337
8785 440 1 1.536026 -9.605982 5.598070
8786 440 1 2.506026 -9.517218 5.470754
8787 440 1 3.476026 -9.693919 5.639261
8788 440 1 4.446026 -9.625715 5.459104
8789 440 1 5.416026 -9.618070 5.634615
8790 440 1 6.386026 -9.546940 5.595882
8791 440 1 7.356026 -9.531701 5.481617
8792 440 1 8.326026 -9.574844 5.460968
8793 440 1 9.296026 -9.524019 5.455565
8794 440 1 10.266026 -9.542184 5.625467
8795 440 1 11.236026 -9.557620 5.608707
8796 440 1 12.206026 -9.617145 5.501717
8797 440 1 13.176026 -9.692058 5.595334
8798 440 1 14.146026 -9.570410 5.638882
8799 440 1 15.116026 -9.638996 5.468998
8800 440 1 16.086026 -9.608276 5.527803
8801 441 1 -0.355504 5.822614 -3.060989
8802 441 1 0.614496 5.794352 -3.079082
8803 441 1 1.584496 5.793930 -3.045882
8804 441 1 2.554496 5.792272 -2.976709
8805 441 1 3.524496 5.854310 -2.995157
8806 441 1 4.494496 5.764584 -2.978498
8807 441 1 5.464496 5.804609 -3.077677
8808 441 1 6.434496 5.751541 -3.098267
8809 441 1 7.404496 5.808946 -3.005555
8810 441 1 8.374496 5.819387 -3.067929
8811 441 1 9.344496 5.863310 -3.102311
8812 441 1 10.314496 5.865896 -3.089309
8813 441 1 11.284496 5.728707 -2.954134
8814 441 1 12.254496 5.688600 -3.083229
8815 441 1 13.224496 5.756725 -2.972374
8816 441 1 14.194496 5.682530 -3.130945
8817 441 1 15.164496 5.855925 -3.129481
8818 441 1 16.134496 5.690518 -3.067733
8819 441 1 17.104496 5.697832 -2.968441
8820 441 1 18.074496 5.683931 -3.097748
8821 442 1 -8.912235 4.231815 -0.779745
8822 442 1 -7.942235 4.091291 -0.686871
8823 442 1 -6.972235 4.204982 -0.715501
8824 442 1 -6.002235 4.197409 -0.787887
8825 442 1 -5.032235 4.109922 -0.723936
8826 442 1 -4.062235 4.251856 -0.747774
8827 442 1 -3.092235 4.116077 -0.747283
8828 442 1 -2.122235 4.068011 -0.850353
8829 442 1 -1.152235 4.069757 -0.708856
8830 442 1 -0.182235 4.134481 -0.798720
8831 442 1 0.787765 4.095672 -0.734554
8832 442 1 1.757765 4.144419 -0.844284
8833 442 1 2.727765 4.159379 -0.715403
8834 442 1 3.697765 4.162270 -0.769777
8835 442 1 4.667765 4.110038 -0.768487
8836 442 1 5.637765 4.144204 -0.845467
8837 442 1 6.607765 4.160447 -0.709282
8838 442 1 7.577765 4.213706 -0.758704
8839 442 1 8.547765 4.135897 -0.763165
8840 442 1 9.517765 4.214115 -0.747862
8841 443 1 -7.616987 -4.234233 -9.414318
8842 443 1 -6.646987 -4.116280 -9.397605
8843 443 1 -5.676987 -4.085045 -9.386478
8844 443 1 -4.706987 -4.049981 -9.449582
8845 443 1 -3.736987 -4.156843 -9.316800
8846 443 1 -2.766987 -4.224269 -9.400406
8847 443 1 -1.796987 -4.112451 -9.348561
8848 443 1 -0.826987 -4.054212 -9.477720
8849 443 1 0.143013 -4.182602 -9.402405
8850 443 1 1.113013 -4.048858 -9.338314
8851 443 1 2.083013 -4.131458 -9.506305
8852 443 1 3.053013 -4.095587 -9.452365
8853 443 1 4.023013 -4.228599 -9.453577
8854 443 1 4.993013 -4.128983 -9.495470
8855 443 1 5.963013 -4.107644 -9.408153
8856 443 1 6.933013 -4.228560 -9.415682
8857 443 1 7.903013 -4.180174 -9.458870
8858 443 1 8.873013 -4.120615 -9.364214
8859 443 1 9.843013 -4.067597 -9.381303
8860 443 1 10.813013 -4.141989 -9.430565
8861 444 1 0.992466 -6.883289 -7.964957
8862 444 1 1.962466 -6.983543 -7.940295
8863 444 1 2.932466 -7.015939 -7.974459
8864 444 1 3.902466 -7.048178 -7.912795
8865 444 1 4.872466 -6.890094 -7.875791
8866 444 1 5.842466 -7.035130 -7.963098
8867 444 1 6.812466 -7.053253 -8.044860
8868 444 1 7.782466 -7.052436 -7.888639
8869 444 1 8.752466 -7.004836 -7.970462
8870 444 1 9.722466 -6.954943 -7.927097
8871 444 1 10.692466 -7.036121 -8.002735
8872 444 1 11.662466 -6.980668 -7.885031
8873 444 1 12.632466 -6.909103 -7.930084
8874 444 1 13.602466 -7.020423 -7.967957
8875 444 1 14.572466 -6.980238 -8.031348
8876 444 1 15.542466 -6.990502 -8.056065
8877 444 1 16.512466 -6.976500 -7.864463
8878 444 1 17.482466 -7.040700 -7.954140
8879 444 1 18.452466 -6.995725 -7.919870
8880 444 1 19.422466 -6.938941 -7.885821
8881 445 1 4.206565 2.185204 6.420980
8882 445 1 5.176565 2.156217 6.461641
8883 445 1 6.146565 2.187906 6.500459
8884 445 1 7.116565 2.218536 6.339775
8885 445 1 8.086565 2.165030 6.363873
8886 445 1 9.056565 2.157769 6.458451
8887 445 1 10.026565 2.103754 6.467301
8888 445 1 10.996565 2.069825 6.373813
8889 445 1 11.966565 2.098455 6.429948
8890 445 1 12.936565 2.234739 6.320131
8891 445 1 13.906565 2.092705 6.474299
8892 445 1 14.876565 2.118006 6.434151
8893 445 1 15.846565 2.179734 6.457229
8894 445 1 16.816565 2.195684 6.487704
8895 445 1 17.786565 2.214996 6.318811
8896 445 1 18.756565 2.166382 6.403426
8897 445 1 19.726565 2.138077 6.441245
8898 445 1 20.696565 2.077904 6.353137
8899 445 1 21.666565 2.073030 6.434334
8900 445 1 22.636565 2.152948 6.514389
8901 446 1 -7.439721 2.337125 -9.070808
8902 446 1 -6.469721 2.407847 -9.163930
8903 446 1 -5.499721 2.281228 -9.029312
8904 446 1 -4.529721 2.345954 -9.104799
8905 446 1 -3.559721 2.298144 -9.169242
8906 446 1 -2.589721 2.299776 -9.162413
8907 446 1 -1.619721 2.304267 -9.131595
8908 446 1 -0.649721 2.417543 -9.094438
8909 446 1 0.320279 2.387272 -9.052085
8910 446 1 1.290279 2.287106 -9.093287
8911 446 1 2.260279 2.332934 -9.185099
8912 446 1 3.230279 2.462963 -9.023906
8913 446 1 4.200279 2.442520 -9.192011
8914 446 1 5.170279 2.354155 -9.068178
8915 446 1 6.140279 2.352334 -9.181065
8916 446 1 7.110279 2.443421 -9.118727
8917 446 1 8.080279 2.309718 -9.146668
8918 446 1 9.050279 2.435637 -9.166284
8919 446 1 10.020279 2.393978 -9.217337
8920 446 1 10.990279 2.400018 -9.157269
8921 447 1 -1.684607 -4.773028 -5.342358
8922 447 1 -0.714607 -4.851564 -5.317720
8923 447 1 0.255393 -4.790344 -5.369577
8924 447 1 1.225393 -4.839793 -5.265706
8925 447 1 2.195393 -4.884164 -5.437973
8926 447 1 3.165393 -4.705276 -5.316124
8927 447 1 4.135393 -4.792274 -5.337172
8928 447 1 5.105393 -4.891857 -5.402093
8929 447 1 6.075393 -4.899681 -5.438750
8930 447 1 7.045393 -4.900240 -5.275095
8931 447 1 8.015393 -4.864880 -5.299981
8932 447 1 8.985393 -4.708165 -5.310088
8933 447 1 9.955393 -4.719049 -5.347727
8934 447 1 10.925393 -4.879541 -5.272359
8935 447 1 11.895393 -4.756992 -5.373801
8936 447 1 12.865393 -4.804803 -5.352083
8937 447 1 13.835393 -4.854634 -5.387582
8938 447 1 14.805393 -4.839335 -5.405704
8939 447 1 15.775393 -4.879028 -5.448125
8940 447 1 16.745393 -4.735700 -5.434854
8941 448 1 2.909023 4.675492 7.240525
8942 448 1 3.879023 4.684672 7.225300
8943 448 1 4.849023 4.821173 7.350127
8944 448 1 5.819023 4.788555 7.251726
8945 448 1 6.789023 4.764737 7.388052
8946 448 1 7.759023 4.735678 7.291197
8947 448 1 8.729023 4.696518 7.282523
8948 448 1 9.699023 4.716552 7.324818
8949 448 1 10.669023 4.642658 7.329778
8950 448 1 11.639023 4.743850 7.291496
8951 448 1 12.609023 4.814393 7.263060
8952 448 1 13.579023 4.688403 7.268351
8953 448 1 14.549023 4.636383 7.309673
8954 448 1 15.519023 4.655520 7.287543
8955 448 1 16.489023 4.785151 7.390121
8956 448 1 17.459023 4.699367 7.405244
8957 448 1 18.429023 4.758466 7.254981
8958 448 1 19.399023 4.740307 7.245956
8959 448 1 20.369023 4.641695 7.218473
8960 448 1 21.339023 4.774355 7.393040
8961 449 1 4.087031 8.433162 -8.334850
8962 449 1 5.057031 8.420948 -8.346867
8963 449 1 6.027031 8.418550 -8.225454
8964 449 1 6.997031 8.429198 -8.336828
8965 449 1 7.967031 8.348394 -8.354489
8966 449 1 8.937031 8.421632 -8.227593
8967 449 1 9.907031 8.404541 -8.292167
8968 449 1 10.877031 8.424705 -8.397693
8969 449 1 11.847031 8.429207 -8.287919
8970 449 1 12.817031 8.318758 -8.408533
8971 449 1 13.787031 8.430764 -8.247686
8972 449 1 14.757031 8.465563 -8.301087
8973 449 1 15.727031 8.397580 -8.365177
8974 449 1 16.697031 8.313575 -8.316563
8975 449 1 17.667031 8.507765 -8.342332
8976 449 1 18.637031 8.326438 -8.365490
8977 449 1 19.607031 8.361340 -8.410136
8978 449 1 20.577031 8.435692 -8.328297
8979 449 1 21.547031 8.429721 -8.422553
8980 449 1 22.517031 8.445998 -8.297378
8981 450 1 -6.541066 -6.624972 -6.443772
8982 450 1 -5.571066 -6.727597 -6.299301
8983 450 1 -4.601066 -6.630647 -6.414349
8984 450 1 -3.631066 -6.669431 -6.309305
8985 450 1 -2.661066 -6.762313 -6.311713
8986 450 1 -1.691066 -6.634272 -6.270702
8987 450 1 -0.721066 -6.644758 -6.338368
8988 450 1 0.248934 -6.731574 -6.345582
8989 450 1 1.218934 -6.812065 -6.413686
8990 450 1 2.188934 -6.655834 -6.295019
8991 450 1 3.158934 -6.736802 -6.338304
8992 450 1 4.128934 -6.738251 -6.318539
8993 450 1 5.098934 -6.785846 -6.389296
8994 450 1 6.068934 -6.724510 -6.308634
8995 450 1 7.038934 -6.622326 -6.412276
8996 450 1 8.008934 -6.617640 -6.321600
8997 450 1 8.978934 -6.681788 -6.314468
8998 450 1 9.948934 -6.795184 -6.399671
8999 450 1 10.918934 -6.762507 -6.411000
9000 450 1 11.888934 -6.784527 -6.451446
9001 451 1 -4.802299 -4.979122 7.324602
9002 451 1 -3.832299 -4.915859 7.427512
9003 451 1 -2.862299 -4.902979 7.395925
9004 451 1 -1.892299 -4.856483 7.409129
9005 451 1 -0.922299 -4.994018 7.317554
9006 451 1 0.047701 -4.934337 7.332455
9007 451 1 1.017701 -4.991157 7.318574
9008 451 1 1.987701 -4.922202 7.403154
9009 451 1 2.957701 -4.939603 7.381955
9010 451 1 3.927701 -4.835180 7.393399
9011 451 1 4.897701 -4.992055 7.291657
9012 451 1 5.867701 -4.893412 7.449627
9013 451 1 6.837701 -4.842920 7.300993
9014 451 1 7.807701 -4.932764 7.379766
9015 451 1 8.777701 -4.978839 7.301319
9016 451 1 9.747701 -4.805730 7.468511
9017 451 1 10.717701 -4.836745 7.338253
9018 451 1 11.687701 -4.888531 7.393959
9019 451 1 12.657701 -4.942372 7.427887
9020 451 1 13.627701 -4.829541 7.441372
9021 452 1 5.721521 1.263648 -3.881321
9022 452 1 6.691521 1.257408 -3.879837
9023 452 1 7.661521 1.186412 -3.905290
9024 452 1 8.631521 1.101520 -4.001862
9025 452 1 9.601521 1.206627 -3.923210
9026 452 1 10.571521 1.119388 -4.031667
9027 452 1 11.541521 1.082267 -3.958354
9028 452 1 12.511521 1.160845 -3.911409
9029 452 1 13.481521 1.203367 -3.952162
9030 452 1 14.451521 1.193332 -3.916345
9031 452 1 15.421521 1.231836 -4.047454
9032 452 1 16.391521 1.130659 -3.965931
9033 452 1 17.361521 1.249260 -3.938406
9034 452 1 18.331521 1.105428 -3.988675
9035 452 1 19.301521 1.177824 -4.063139
9036 452 1 20.271521 1.249349 -3.963402
9037 452 1 21.241521 1.188867 -3.977616
9038 452 1 22.211521 1.204073 -3.902230
9039 452 1 23.181521 1.176009 -3.971877
9040 452 1 24.151521 1.091197 -4.026511
9041 453 1 8.800046 -7.118406 4.530785
9042 453 1 9.770046 -7.056005 4.601414
9043 453 1 10.740046 -7.065895 4.494588
9044 453 1 11.710046 -7.089468 4.459610
9045 453 1 12.680046 -6.968811 4.628421
9046 453 1 13.650046 -7.117704 4.625779
9047 453 1 14.620046 -7.092899 4.476956
9048 453 1 15.590046 -6.975899 4.566279
9049 453 1 16.560046 -7.050909 4.623031
9050 453 1 17.530046 -7.027115 4.549620
9051 453 1 18.500046 -7.071934 4.608378
9052 453 1 19.470046 -7.092250 4.501350
9053 453 1 20.440046 -7.087013 4.546629
9054 453 1 21.410046 -6.922666 4.626323
9055 453 1 22.380046 -7.075891 4.553183
9056 453 1 23.350046 -7.002350 4.547639
9057 453 1 24.320046 -6.931288 4.630817
9058 453 1 25.290046 -6.967402 4.506380
9059 453 1 26.260046 -7.077697 4.640510
9060 453 1 27.230046 -7.108143 4.615612
9061 454 1 2.171250 8.447706 9.504640
9062 454 1 3.141250 8.492552 9.558473
9063 454 1 4.111250 8.463804 9.522570
9064 454 1 5.081250 8.540634 9.471326
9065 454 1 6.051250 8.393329 9.496612
9066 454 1 7.021250 8.395057 9.565983
9067 454 1 7.991250 8.529615 9.609799
9068 454 1 8.961250 8.385999 9.570532
9069 454 1 9.931250 8.405866 9.587014
9070 454 1 10.901250 8.494451 9.563683
9071 454 1 11.871250 8.358448 9.476342
9072 454 1 12.841250 8.406172 9.527872
9073 454 1 13.811250 8.378177 9.497279
9074 454 1 14.781250 8.523742 9.438135
9075 454 1 15.751250 8.375606 9.529859
9076 454 1 16.721250 8.416391 9.623059
9077 454 1 17.691250 8.388686 9.538873
9078 454 1 18.661250 8.511462 9.564855
9079 454 1 19.631250 8.448891 9.507424
9080 454 1 20.601250 8.410969 9.453601
9081 455 1 9.933521 2.614756 9.684893
9082 455 1 10.903521 2.485748 9.726996
9083 455 1 11.873521 2.523846 9.657777
9084 455 1 12.843521 2.560621 9.762231
9085 455 1 13.813521 2.477840 9.732587
9086 455 1 14.783521 2.580117 9.830369
9087 455 1 15.753521 2.557374 9.836504
9088 455 1 16.723521 2.583728 9.664037
9089 455 1 17.693521 2.474519 9.782508
9090 455 1 18.663521 2.559331 9.649191
9091 455 1 19.633521 2.570159 9.650219
9092 455 1 20.603521 2.653440 9.677075
9093 455 1 21.573521 2.566489 9.719381
9094 455 1 22.543521 2.642500 9.780539
9095 455 1 23.513521 2.568973 9.646527
9096 455 1 24.483521 2.661862 9.772791
9097 455 1 25.453521 2.656699 9.708141
9098 455 1 26.423521 2.644973 9.736351
9099 455 1 27.393521 2.630118 9.702299
9100 455 1 28.363521 2.606790 9.736746
9101 456 1 0.794041 -2.555689 -7.701274
9102 456 1 1.764041 -2.466501 -7.742959
9103 456 1 2.734041 -2.472573 -7.742466
9104 456 1 3.704041 -2.512039 -7.706034
9105 456 1 4.674041 -2.463389 -7.780530
9106 456 1 5.644041 -2.504016 -7.740726
9107 456 1 6.614041 -2.547422 -7.727285
9108 456 1 7.584041 -2.436694 -7.760529
9109 456 1 8.554041 -2.562609 -7.784795
9110 456 1 9.524041 -2.441613 -7.767023
9111 456 1 10.494041 -2.437570 -7.683357
9112 456 1 11.464041 -2.617323 -7.791945
9113 456 1 12.434041 -2.434149 -7.782618
9114 456 1 13.404041 -2.564642 -7.723584
9115 456 1 14.374041 -2.462246 -7.674829
9116 456 1 15.344041 -2.560821 -7.681783
9117 456 1 16.314041 -2.613479 -7.719364
9118 456 1 17.284041 -2.472188 -7.822868
9119 456 1 18.254041 -2.444197 -7.830733
9120 456 1 19.224041 -2.508362 -7.686024
9121 457 1 6.665728 -5.744928 -3.363781
9122 457 1 7.635728 -5.755072 -3.380339
9123 457 1 8.605728 -5.811826 -3.476996
9124 457 1 9.575728 -5.704172 -3.505787
9125 457 1 10.545728 -5.783956 -3.521903
9126 457 1 11.515728 -5.872282 -3.476304
9127 457 1 12.485728 -5.858143 -3.506738
9128 457 1 13.455728 -5.716947 -3.354809
9129 457 1 14.425728 -5.697978 -3.508451
9130 457 1 15.395728 -5.877975 -3.468029
9131 457 1 16.365728 -5.773981 -3.433020
9132 457 1 17.335728 -5.723237 -3.424379
9133 457 1 18.305728 -5.892870 -3.474493
9134 457 1 19.275728 -5.809695 -3.331553
9135 457 1 20.245728 -5.858323 -3.398779
9136 457 1 21.215728 -5.715589 -3.493055
9137 457 1 22.185728 -5.758592 -3.379632
9138 457 1 23.155728 -5.847160 -3.456711
9139 457 1 24.125728 -5.831652 -3.523929
9140 457 1 25.095728 -5.856151 -3.421073
9141 458 1 2.811275 2.186846 -9.059014
9142 458 1 3.781275 2.219458 -9.228314
9143 458 1 4.751275 2.066027 -9.077604
9144 458 1 5.721275 2.239582 -9.070723
9145 458 1 6.691275 2.166244 -9.133233
9146 458 1 7.661275 2.078067 -9.120021
9147 458 1 8.631275 2.219668 -9.122834
9148 458 1 9.601275 2.175054 -9.242224
9149 458 1 10.571275 2.133836 -9.147206
9150 458 1 11.541275 2.061222 -9.108479
9151 458 1 12.511275 2.186008 -9.055939
9152 458 1 13.481275 2.085656 -9.078610
9153 458 1 14.451275 2.075660 -9.231811
9154 458 1 15.421275 2.074924 -9.109773
9155 458 1 16.391275 2.064616 -9.207411
9156 458 1 17.361275 2.137267 -9.086269
9157 458 1 18.331275 2.253473 -9.124733
9158 458 1 19.301275 2.105759 -9.092860
9159 458 1 20.271275 2.175070 -9.174299
9160 458 1 21.241275 2.227624 -9.232972
9161 459 1 -6.822628 1.320173 8.328690
9162 459 1 -5.852628 1.328945 8.380086
9163 459 1 -4.882628 1.467358 8.329581
9164 459 1 -3.912628 1.317630 8.372415
9165 459 1 -2.942628 1.429777 8.283825
9166 459 1 -1.972628 1.316229 8.274728
9167 459 1 -1.002628 1.318731 8.432472
9168 459 1 -0.032628 1.485506 8.450212
9169 459 1 0.937372 1.431702 8.329434
9170 459 1 1.907372 1.338882 8.301021
9171 459 1 2.877372 1.304496 8.302237
9172 459 1 3.847372 1.381136 8.303486
9173 459 1 4.817372 1.398202 8.458569
9174 459 1 5.787372 1.464913 8.334884
9175 459 1 6.757372 1.475217 8.451002
9176 459 1 7.727372 1.477542 8.297976
9177 459 1 8.697372 1.320471 8.347149
9178 459 1 9.667372 1.472372 8.341612
9179 459 1 10.637372 1.331835 8.296911
9180 459 1 11.607372 1.428030 8.302140
9181 460 1 -0.223360 -1.788851 1.727219
9182 460 1 0.746640 -1.881471 1.739805
9183 460 1 1.716640 -1.844701 1.706471
9184 460 1 2.686640 -1.892306 1.767356
9185 460 1 3.656640 -1.847037 1.725958
9186 460 1 4.626640 -1.770888 1.713642
9187 460 1 5.596640 -1.795670 1.764201
9188 460 1 6.566640 -1.900628 1.667467
9189 460 1 7.536640 -1.879760 1.719664
9190 460 1 8.506640 -1.852818 1.692664
9191 460 1 9.476640 -1.736462 1.791196
9192 460 1 10.446640 -1.862476 1.640610
9193 460 1 11.416640 -1.844744 1.718556
9194 460 1 12.386640 -1.811138 1.636930
9195 460 1 13.356640 -1.829855 1.683742
9196 460 1 14.326640 -1.802298 1.748428
9197 460 1 15.296640 -1.822816 1.800866
9198 460 1 16.266640 -1.826076 1.689064
9199 460 1 17.236640 -1.863533 1.729716
9200 460 1 18.206640 -1.819746 1.657491
9201 461 1 -0.982441 4.241679 -5.126325
9202 461 1 -0.012441 4.190058 -5.050103
9203 461 1 0.957559 4.194731 -5.139597
9204 461 1 1.927559 4.165100 -5.224446
9205 461 1 2.897559 4.267324 -5.181293
9206 461 1 3.867559 4.266688 -5.138573
9207 461 1 4.837559 4.139116 -5.040627
9208 461 1 5.807559 4.119537 -5.146587
9209 461 1 6.777559 4.249557 -5.055185
9210 461 1 7.747559 4.230841 -5.219610
9211 461 1 8.717559 4.241970 -5.106653
9212 461 1 9.687559 4.120238 -5.088976
9213 461 1 10.657559 4.204595 -5.099099
9214 461 1 11.627559 4.113314 -5.149392
9215 461 1 12.597559 4.118636 -5.040280
9216 461 1 13.567559 4.137010 -5.070304
9217 461 1 14.537559 4.232496 -5.104571
9218 461 1 15.507559 4.131628 -5.095058
9219 461 1 16.477559 4.225528 -5.120119
9220 461 1 17.447559 4.209306 -5.095326
9221 462 1 -6.680681 -6.832713 1.655789
9222 462 1 -5.710681 -6.753921 1.524621
9223 462 1 -4.740681 -6.819895 1.647913
9224 462 1 -3.770681 -6.863568 1.647987
9225 462 1 -2.800681 -6.789568 1.647408
9226 462 1 -1.830681 -6.784227 1.482969
9227 462 1 -0.860681 -6.748361 1.660344
9228 462 1 0.109319 -6.853269 1.613896
9229 462 1 1.079319 -6.698376 1.516095
9230 462 1 2.049319 -6.710745 1.593520
9231 462 1 3.019319 -6.738222 1.551860
9232 462 1 3.989319 -6.741639 1.563828
9233 462 1 4.959319 -6.696331 1.538174
9234 462 1 5.929319 -6.825106 1.605587
9235 462 1 6.899319 -6.813618 1.478894
9236 462 1 7.869319 -6.814160 1.589963
9237 462 1 8.839319 -6.815299 1.666886
9238 462 1 9.809319 -6.692284 1.636356
9239 462 1 10.779319 -6.824377 1.629777
9240 462 1 11.749319 -6.862205 1.634845
9241 463 1 -2.870656 -5.671630 7.503967
9242 463 1 -1.900656 -5.763510 7.433242
9243 463 1 -0.930656 -5.626334 7.452259
9244 463 1 0.039344 -5.660171 7.526022
9245 463 1 1.009344 -5.668763 7.538415
9246 463 1 1.979344 -5.614681 7.426916
9247 463 1 2.949344 -5.726334 7.503091
9248 463 1 3.919344 -5.678346 7.575012
9249 463 1 4.889344 -5.709714 7.528457
9250 463 1 5.859344 -5.711177 7.441469
9251 463 1 6.829344 -5.584074 7.423123
9252 463 1 7.799344 -5.624259 7.474856
9253 463 1 8.769344 -5.708213 7.454592
9254 463 1 9.739344 -5.615033 7.531150
9255 463 1 10.709344 -5.624143 7.439184
9256 463 1 11.679344 -5.656283 7.481754
9257 463 1 12.649344 -5.672774 7.441145
9258 463 1 13.619344 -5.640855 7.545052
9259 463 1 14.589344 -5.638403 7.381671
9260 463 1 15.559344 -5.709642 7.388074
9261 464 1 8.595480 -0.473294 2.395852
9262 464 1 9.565480 -0.355008 2.329233
9263 464 1 10.535480 -0.296752 2.453746
9264 464 1 11.505480 -0.443640 2.423898
9265 464 1 12.475480 -0.355033 2.322075
9266 464 1 13.445480 -0.344276 2.343821
9267 464 1 14.415480 -0.333489 2.387586
9268 464 1 15.385480 -0.297486 2.422624
9269 464 1 16.355480 -0.369831 2.466802
9270 464 1 17.325480 -0.327258 2.423205
9271 464 1 18.295480 -0.462465 2.407950
9272 464 1 19.265480 -0.339120 2.406610
9273 464 1 20.235480 -0.386700 2.453808
9274 464 1 21.205480 -0.426914 2.396085
9275 464 1 22.175480 -0.439076 2.424673
9276 464 1 23.145480 -0.469955 2.506918
9277 464 1 24.115480 -0.466373 2.473378
9278 464 1 25.085480 -0.412451 2.470533
9279 464 1 26.055480 -0.357885 2.337357
9280 464 1 27.025480 -0.343945 2.424543
9281 465 1 8.940410 -9.984379 -4.396062
9282 465 1 9.910410 -9.837349 -4.525956
9283 465 1 10.880410 -9.934530 -4.385498
9284 465 1 11.850410 -9.828415 -4.461676
9285 465 1 12.820410 -9.861639 -4.394454
9286 465 1 13.790410 -9.894000 -4.483253
9287 465 1 14.760410 -9.955039 -4.464887
9288 465 1 15.730410 -9.913889 -4.569712
9289 465 1 16.700410 -9.817905 -4.480402
9290 465 1 17.670410 -9.803952 -4.499756
9291 465 1 18.640410 -9.804126 -4.388834
9292 465 1 19.610410 -9.977276 -4.397898
9293 465 1 20.580410 -9.901713 -4.478767
9294 465 1 21.550410 -9.926286 -4.476037
9295 465 1 22.520410 -9.952508 -4.510182
9296 465 1 23.490410 -9.833807 -4.390954
9297 465 1 24.460410 -9.972997 -4.438776
9298 465 1 25.430410 -9.962393 -4.553695
9299 465 1 26.400410 -9.795097 -4.391060
9300 465 1 27.370410 -9.838691 -4.565299
9301 466 1 2.067656 -7.766096 2.719107
9302 466 1 3.037656 -7.690600 2.759684
9303 466 1 4.007656 -7.762426 2.749738
9304 466 1 4.977656 -7.722879 2.802650
9305 466 1 5.947656 -7.775692 2.841513
9306 466 1 6.917656 -7.699617 2.730742
9307 466 1 7.887656 -7.880195 2.717590
9308 466 1 8.857656 -7.782590 2.800964
9309 466 1 9.827656 -7.739388 2.665353
9310 466 1 10.797656 -7.799884 2.697537
9311 466 1 11.767656 -7.860393 2.828920
9312 466 1 12.737656 -7.839960 2.723112
9313 466 1 13.707656 -7.845089 2.801523
9314 466 1 14.677656 -7.826488 2.817717
9315 466 1 15.647656 -7.743709 2.760918
9316 466 1 16.617656 -7.712571 2.808052
9317 466 1 17.587656 -7.798456 2.669378
9318 466 1 18.557656 -7.830393 2.723371
9319 466 1 19.527656 -7.798527 2.788203
9320 466 1 20.497656 -7.811367 2.730006
9321 467 1 -4.718252 -5.992159 -4.671081
9322 467 1 -3.748252 -5.980885 -4.625226
9323 467 1 -2.778252 -6.043619 -4.654659
9324 467 1 -1.808252 -6.043849 -4.648346
9325 467 1 -0.838252 -5.911293 -4.715919
9326 467 1 0.131748 -6.019372 -4.671714
9327 467 1 1.101748 -6.091158 -4.751171
9328 467 1 2.071748 -5.912809 -4.715447
9329 467 1 3.041748 -6.063235 -4.598428
9330 467 1 4.011748 -6.026214 -4.649506
9331 467 1 4.981748 -5.984365 -4.654235
9332 467 1 5.951748 -5.983218 -4.620884
9333 467 1 6.921748 -6.058698 -4.722761
9334 467 1 7.891748 -6.001547 -4.579540
9335 467 1 8.861748 -5.978442 -4.603048
9336 467 1 9.831748 -6.070669 -4.625923
9337 467 1 10.801748 -6.045369 -4.577698
9338 467 1 11.771748 -6.041920 -4.776702
9339 467 1 12.741748 -5.951910 -4.772574
9340 467 1 13.711748 -6.105343 -4.755380
9341 468 1 4.461416 -7.406863 3.807779
9342 468 1 5.431416 -7.436762 3.701536
9343 468 1 6.401416 -7.368472 3.800141
9344 468 1 7.371416 -7.508647 3.714019
9345 468 1 8.341416 -7.406961 3.696781
9346 468 1 9.311416 -7.387572 3.671578
9347 468 1 10.281416 -7.343452 3.629881
9348 468 1 11.251416 -7.328914 3.672626
9349 468 1 12.221416 -7.415944 3.829365
9350 468 1 13.191416 -7.419817 3.646155
9351 468 1 14.161416 -7.371137 3.759555
9352 468 1 15.131416 -7.358842 3.646965
9353 468 1 16.101416 -7.388079 3.796376
9354 468 1 17.071416 -7.457709 3.804166
9355 468 1 18.041416 -7.518606 3.726686
9356 468 1 19.011416 -7.445006 3.774833
9357 468 1 19.981416 -7.429504 3.793426
9358 468 1 20.951416 -7.358320 3.775991
9359 468 1 21.921416 -7.470620 3.653882
9360 468 1 22.891416 -7.502714 3.826658
9361 469 1 -0.412323 -1.186448 -9.347547
9362 469 1 0.557677 -1.078854 -9.419084
9363 469 1 1.527677 -1.092194 -9.315815
9364 469 1 2.497677 -1.119802 -9.344654
9365 469 1 3.467677 -1.138138 -9.335669
9366 469 1 4.437677 -1.262617 -9.343174
9367 469 1 5.407677 -1.119284 -9.335556
9368 469 1 6.377677 -1.182173 -9.265734
9369 469 1 7.347677 -1.243551 -9.409739
9370 469 1 8.317677 -1.208829 -9.360225
9371 469 1 9.287677 -1.110021 -9.446394
9372 469 1 10.257677 -1.078357 -9.362803
9373 469 1 11.227677 -1.174373 -9.257944
9374 469 1 12.197677 -1.115761 -9.448488
9375 469 1 13.167677 -1.094366 -9.275530
9376 469 1 14.137677 -1.149897 -9.289626
9377 469 1 15.107677 -1.246322 -9.406424
9378 469 1 16.077677 -1.114257 -9.311763
9379 469 1 17.047677 -1.131830 -9.424339
9380 469 1 18.017677 -1.196350 -9.333994
9381 470 1 3.026740 -7.540128 6.798666
9382 470 1 3.996740 -7.666431 6.803221
9383 470 1 4.966740 -7.662648 6.826321
9384 470 1 5.936740 -7.694024 6.792486
9385 470 1 6.906740 -7.673211 6.803339
9386 470 1 7.876740 -7.644071 6.832404
9387 470 1 8.846740 -7.725643 6.746700
9388 470 1 9.816740 -7.722285 6.758806
9389 470 1 10.786740 -7.614121 6.643782
9390 470 1 11.756740 -7.711091 6.686596
9391 470 1 12.726740 -7.625753 6.787559
9392 470 1 13.696740 -7.549327 6.768877
9393 470 1 14.666740 -7.615446 6.823158
9394 470 1 15.636740 -7.672357 6.817367
9395 470 1 16.606740 -7.537783 6.817208
9396 470 1 17.576740 -7.678933 6.716259
9397 470 1 18.546740 -7.652476 6.765640
9398 470 1 19.516740 -7.696731 6.829528
9399 470 1 20.486740 -7.643962 6.810508
9400 470 1 21.456740 -7.530813 6.724992
9401 471 1 -3.062958 -7.242007 -1.965738
9402 471 1 -2.092958 -7.176820 -1.984174
9403 471 1 -1.122958 -7.175090 -2.085403
9404 471 1 -0.152958 -7.214393 -1.945601
9405 471 1 0.817042 -7.109966 -2.028770
9406 471 1 1.787042 -7.259830 -1.967566
9407 471 1 2.757042 -7.250143 -2.022036
9408 471 1 3.727042 -7.256690 -2.028260
9409 471 1 4.697042 -7.090084 -1.933891
9410 471 1 5.667042 -7.107052 -1.967903
9411 471 1 6.637042 -7.117745 -1.991217
9412 471 1 7.607042 -7.153598 -1.920457
9413 471 1 8.577042 -7.225425 -1.904971
9414 471 1 9.547042 -7.195912 -1.975526
9415 471 1 10.517042 -7.153800 -2.079241
9416 471 1 11.487042 -7.258488 -2.040326
9417 471 1 12.457042 -7.151405 -2.004236
9418 471 1 13.427042 -7.262931 -2.072717
9419 471 1 14.397042 -7.137267 -2.082399
9420 471 1 15.367042 -7.266525 -1.901626
9421 472 1 -7.352471 -3.378449 -3.588929
9422 472 1 -6.382471 -3.476451 -3.566946
9423 472 1 -5.412471 -3.542077 -3.535920
9424 472 1 -4.442471 -3.372679 -3.648257
9425 472 1 -3.472471 -3.382766 -3.459491
9426 472 1 -2.502471 -3.369699 -3.527005
9427 472 1 -1.532471 -3.468424 -3.543848
9428 472 1 -0.562471 -3.516666 -3.528738
9429 472 1 0.407529 -3.519899 -3.651809
9430 472 1 1.377529 -3.436263 -3.489659
9431 472 1 2.347529 -3.398661 -3.589627
9432 472 1 3.317529 -3.382954 -3.566134
9433 472 1 4.287529 -3.505756 -3.497398
9434 472 1 5.257529 -3.365630 -3.456217
9435 472 1 6.227529 -3.519091 -3.542146
9436 472 1 7.197529 -3.411218 -3.603033
9437 472 1 8.167529 -3.388329 -3.529545
9438 472 1 9.137529 -3.547710 -3.529776
9439 472 1 10.107529 -3.459083 -3.499532
9440 472 1 11.077529 -3.441179 -3.627900
9441 473 1 -9.038625 7.480503 -3.512480
9442 473 1 -8.068625 7.513320 -3.437154
9443 473 1 -7.098625 7.500616 -3.489384
9444 473 1 -6.128625 7.517796 -3.498226
9445 473 1 -5.158625 7.440251 -3.456044
9446 473 1 -4.188625 7.424446 -3.461852
9447 473 1 -3.218625 7.422160 -3.548676
9448 473 1 -2.248625 7.435239 -3.532106
9449 473 1 -1.278625 7.481055 -3.526415
9450 473 1 -0.308625 7.524903 -3.427883
9451 473 1 0.661375 7.432464 -3.380053
9452 473 1 1.631375 7.441997 -3.551654
9453 473 1 2.601375 7.431377 -3.543015
9454 473 1 3.571375 7.354486 -3.513067
9455 473 1 4.541375 7.360766 -3.552670
9456 473 1 5.511375 7.446256 -3.501534
9457 473 1 6.481375 7.483962 -3.470586
9458 473 1 7.451375 7.457765 -3.537696
9459 473 1 8.421375 7.494079 -3.481005
9460 473 1 9.391375 7.530692 -3.370166
9461 474 1 -8.681964 1.230146 -3.737013
9462 474 1 -7.711964 1.412866 -3.696785
9463 474 1 -6.741964 1.399136 -3.697111
9464 474 1 -5.771964 1.304703 -3.673332
9465 474 1 -4.801964 1.264097 -3.772582
9466 474 1 -3.831964 1.351045 -3.754722
9467 474 1 -2.861964 1.379012 -3.650048
9468 474 1 -1.891964 1.394894 -3.733132
9469 474 1 -0.921964 1.381038 -3.667518
9470 474 1 0.048036 1.323204 -3.680645
9471 474 1 1.018036 1.309097 -3.697333
9472 474 1 1.988036 1.283379 -3.744661
9473 474 1 2.958036 1.331898 -3.699561
9474 474 1 3.928036 1.275845 -3.652425
9475 474 1 4.898036 1.265189 -3.779423
9476 474 1 5.868036 1.389702 -3.679278
9477 474 1 6.838036 1.417489 -3.718724
9478 474 1 7.808036 1.269781 -3.639266
9479 474 1 8.778036 1.293734 -3.697715
9480 474 1 9.748036 1.427728 -3.690387
9481 475 1 5.867721 3.692565 -9.946826
9482 475 1 6.837721 3.592046 -9.963314
9483 475 1 7.807721 3.708450 -9.842323
9484 475 1 8.777721 3.719441 -9.969964
9485 475 1 9.747721 3.769577 -9.977729
9486 475 1 10.717721 3.658038 -9.921946
9487 475 1 11.687721 3.721689 -10.027731
9488 475 1 12.657721 3.750411 -9.991697
9489 475 1 13.627721 3.687408 -9.911776
9490 475 1 14.597721 3.620274 -9.887783
9491 475 1 15.567721 3.665132 -9.840692
9492 475 1 16.537721 3.712815 -10.008011
9493 475 1 17.507721 3.678234 -9.847365
9494 475 1 18.477721 3.625422 -9.929823
9495 475 1 19.447721 3.596910 -9.889030
9496 475 1 20.417721 3.683384 -9.996601
9497 475 1 21.387721 3.619661 -10.020631
9498 475 1 22.357721 3.608996 -9.919281
9499 475 1 23.327721 3.626517 -9.845268
9500 475 1 24.297721 3.666320 -9.924112
9501 476 1 8.300872 -3.109747 9.523270
9502 476 1 9.270872 -3.233819 9.517107
9503 476 1 10.240872 -3.261744 9.498981
9504 476 1 11.210872 -3.147293 9.611558
9505 476 1 12.180872 -3.238485 9.504718
9506 476 1 13.150872 -3.182651 9.507706
9507 476 1 14.120872 -3.246001 9.477184
9508 476 1 15.090872 -3.130851 9.583009
9509 476 1 16.060872 -3.149701 9.606489
9510 476 1 17.030872 -3.160260 9.454224
9511 476 1 18.000872 -3.097551 9.610293
9512 476 1 18.970872 -3.207386 9.570091
9513 476 1 19.940872 -3.251026 9.589230
9514 476 1 20.910872 -3.245669 9.546639
9515 476 1 21.880872 -3.126736 9.455020
9516 476 1 22.850872 -3.169016 9.420407
9517 476 1 23.820872 -3.148514 9.421460
9518 476 1 24.790872 -3.128104 9.591869
9519 476 1 25.760872 -3.144489 9.508570
9520 476 1 26.730872 -3.199275 9.597758
9521 477 1 -7.602131 7.339026 -3.856527
9522 477 1 -6.632131 7.153812 -3.851918
9523 477 1 -5.662131 7.175840 -3.913291
9524 477 1 -4.692131 7.246123 -3.851926
9525 477 1 -3.722131 7.199710 -3.745693
9526 477 1 -2.752131 7.328466 -3.899142
9527 477 1 -1.782131 7.180308 -3.873613
9528 477 1 -0.812131 7.287221 -3.877437
9529 477 1 0.157869 7.179135 -3.882438
9530 477 1 1.127869 7.200583 -3.889388
9531 477 1 2.097869 7.331560 -3.812148
9532 477 1 3.067869 7.276993 -3.797923
9533 477 1 4.037869 7.197814 -3.881303
9534 477 1 5.007869 7.329486 -3.820213
9535 477 1 5.977869 7.246569 -3.920286
9536 477 1 6.947869 7.330894 -3.919343
9537 477 1 7.917869 7.174697 -3.804557
9538 477 1 8.887869 7.280479 -3.752857
9539 477 1 9.857869 7.212037 -3.895534
9540 477 1 10.827869 7.164681 -3.768557
9541 478 1 -9.035745 3.898781 -6.533231
9542 478 1 -8.065745 3.998318 -6.459497
9543 478 1 -7.095745 3.871788 -6.549895
9544 478 1 -6.125745 3.858697 -6.627191
9545 478 1 -5.155745 3.982412 -6.529967
9546 478 1 -4.185745 4.011728 -6.648969
9547 478 1 -3.215745 3.922360 -6.578293
9548 478 1 -2.245745 3.989925 -6.590183
9549 478 1 -1.275745 3.956868 -6.586559
9550 478 1 -0.305745 3.912563 -6.568084
9551 478 1 0.664255 3.950489 -6.653492
9552 478 1 1.634255 4.016302 -6.649978
9553 478 1 2.604255 3.881346 -6.517666
9554 478 1 3.574255 3.949318 -6.653077
9555 478 1 4.544255 4.013773 -6.526582
9556 478 1 5.514255 3.871902 -6.574872
9557 478 1 6.484255 3.837257 -6.557377
9558 478 1 7.454255 3.930798 -6.625931
9559 478 1 8.424255 4.007690 -6.546261
9560 478 1 9.394255 3.995667 -6.465616
9561 479 1 -3.551316 -8.526353 4.600813
9562 479 1 -2.581316 -8.553590 4.493730
9563 479 1 -1.611316 -8.539925 4.497415
9564 479 1 -0.641316 -8.484345 4.507422
9565 479 1 0.328684 -8.496018 4.612115
9566 479 1 1.298684 -8.509922 4.581500
9567 479 1 2.268684 -8.560555 4.590366
9568 479 1 3.238684 -8.512201 4.424764
9569 479 1 4.208684 -8.440726 4.533437
9570 479 1 5.178684 -8.407121 4.523828
9571 479 1 6.148684 -8.508872 4.550773
9572 479 1 7.118684 -8.550648 4.485043
9573 479 1 8.088684 -8.497246 4.469530
9574 479 1 9.058684 -8.480669 4.568693
9575 479 1 10.028684 -8.442378 4.611210
9576 479 1 10.998684 -8.552875 4.486628
9577 479 1 11.968684 -8.537339 4.591321
9578 479 1 12.938684 -8.422306 4.482610
9579 479 1 13.908684 -8.457429 4.433946
9580 479 1 14.878684 -8.495998 4.526116
9581 480 1 -6.237016 5.011469 9.472994
9582 480 1 -5.267016 4.884878 9.434227
9583 480 1 -4.297016 4.846690 9.376005
9584 480 1 -3.327016 4.925934 9.410835
9585 480 1 -2.357016 4.997499 9.410036
9586 480 1 -1.387016 4.971546 9.534342
9587 480 1 -0.417016 4.998087 9.572523
9588 480 1 0.552984 4.930914 9.382384
9589 480 1 1.522984 4.902262 9.540482
9590 480 1 2.492984 4.881912 9.408563
9591 480 1 3.462984 4.867197 9.423015
9592 480 1 4.432984 4.829365 9.453966
9593 480 1 5.402984 5.005845 9.467229
9594 480 1 6.372984 4.916306 9.456987
9595 480 1 7.342984 4.932559 9.560718
9596 480 1 8.312984 4.969510 9.416779
9597 480 1 9.282984 4.826543 9.415821
9598 480 1 10.252984 4.825157 9.491799
9599 480 1 11.222984 4.881237 9.542029
9600 480 1 12.192984 4.931464 9.468747
9601 481 1 -9.924948 4.222339 5.173847
9602 481 1 -8.954948 4.124866 5.276940
9603 481 1 -7.984948 4.258364 5.155518
9604 481 1 -7.014948 4.183208 5.171500
9605 481 1 -6.044948 4.105738 5.115374
9606 481 1 -5.074948 4.111624 5.270271
9607 481 1 -4.104948 4.269351 5.195887
9608 481 1 -3.134948 4.218653 5.124291
9609 481 1 -2.164948 4.279450 5.289496
9610 481 1 -1.194948 4.155648 5.208500
9611 481 1 -0.224948 4.246306 5.297292
9612 481 1 0.745052 4.275862 5.234275
9613 481 1 1.715052 4.109185 5.281042
9614 481 1 2.685052 4.173393 5.236816
9615 481 1 3.655052 4.257301 5.126598
9616 481 1 4.625052 4.164531 5.122936
9617 481 1 5.595052 4.111525 5.225538
9618 481 1 6.565052 4.135035 5.266673
9619 481 1 7.535052 4.230011 5.255251
9620 481 1 8.505052 4.231733 5.298208
9621 482 1 8.734531 -3.967341 5.147269
9622 482 1 9.704531 -4.024678 5.155751
9623 482 1 10.674531 -4.070921 5.084136
9624 482 1 11.644531 -4.054332 5.158423
9625 482 1 12.614531 -3.929860 5.153773
9626 482 1 13.584531 -3.930769 5.225020
9627 482 1 14.554531 -3.973422 5.217648
9628 482 1 15.524531 -3.915795 5.265165
9629 482 1 16.494531 -3.971915 5.103089
9630 482 1 17.464531 -3.988046 5.152342
9631 482 1 18.434531 -4.103173 5.079762
9632 482 1 19.404531 -3.976394 5.261322
9633 482 1 20.374531 -3.921216 5.216569
9634 482 1 21.344531 -4.036851 5.262286
9635 482 1 22.314531 -4.056023 5.192959
9636 482 1 23.284531 -4.064891 5.150844
9637 482 1 24.254531 -4.065979 5.151999
9638 482 1 25.224531 -4.036228 5.259638
9639 482 1 26.194531 -4.062131 5.155020
9640 482 1 27.164531 -3.952526 5.088895
9641 483 1 -6.291931 -8.992662 -3.241350
9642 483 1 -5.321931 -9.089098 -3.286098
9643 483 1 -4.351931 -8.964764 -3.291000
9644 483 1 -3.381931 -9.109502 -3.233288
9645 483 1 -2.411931 -9.075708 -3.283926
9646 483 1 -1.441931 -9.001546 -3.259728
9647 483 1 -0.471931 -9.006348 -3.402901
9648 483 1 0.498069 -9.113122 -3.239967
9649 483 1 1.468069 -9.097847 -3.344545
9650 483 1 2.438069 -9.135965 -3.264411
9651 483 1 3.408069 -9.156663 -3.335733
9652 483 1 4.378069 -9.138709 -3.287786
9653 483 1 5.348069 -9.104064 -3.379204
9654 483 1 6.318069 -9.012167 -3.237974
9655 483 1 7.288069 -9.141743 -3.274921
9656 483 1 8.258069 -9.163154 -3.388858
9657 483 1 9.228069 -9.020644 -3.348169
9658 483 1 10.198069 -9.110001 -3.392970
9659 483 1 11.168069 -9.004770 -3.401250
9660 483 1 12.138069 -9.099464 -3.266832
9661 484 1 7.893977 4.227859 -4.602933
9662 484 1 8.863977 4.193536 -4.756511
9663 484 1 9.833977 4.263561 -4.606752
9664 484 1 10.803977 4.318869 -4.682420
9665 484 1 11.773977 4.307433 -4.621948
9666 484 1 12.743977 4.310526 -4.633549
9667 484 1 13.713977 4.203852 -4.628283
9668 484 1 14.683977 4.315365 -4.610967
9669 484 1 15.653977 4.215880 -4.744112
9670 484 1 16.623977 4.293320 -4.705383
9671 484 1 17.593977 4.305959 -4.750689
9672 484 1 18.563977 4.256050 -4.594619
9673 484 1 19.533977 4.329445 -4.757400
9674 484 1 20.503977 4.385917 -4.762557
9675 484 1 21.473977 4.203150 -4.628339
9676 484 1 22.443977 4.287471 -4.644474
9677 484 1 23.413977 4.336271 -4.761601
9678 484 1 24.383977 4.360160 -4.683468
9679 484 1 25.353977 4.324827 -4.631895
9680 484 1 26.323977 4.344299 -4.646090
9681 485 1 8.163372 6.206680 -6.158717
9682 485 1 9.133372 6.207347 -6.300611
9683 485 1 10.103372 6.085519 -6.195133
9684 485 1 11.073372 6.102741 -6.158618
9685 485 1 12.043372 6.074345 -6.287412
9686 485 1 13.013372 6.220553 -6.297207
9687 485 1 13.983372 6.143405 -6.302691
9688 485 1 14.953372 6.164380 -6.132914
9689 485 1 15.923372 6.123611 -6.233035
9690 485 1 16.893372 6.095789 -6.168593
9691 485 1 17.863372 6.027383 -6.144265
9692 485 1 18.833372 6.043291 -6.311376
9693 485 1 19.803372 6.186992 -6.129946
9694 485 1 20.773372 6.053826 -6.202881
9695 485 1 21.743372 6.092448 -6.265217
9696 485 1 22.713372 6.192118 -6.153346
9697 485 1 23.683372 6.124077 -6.199374
9698 485 1 24.653372 6.213127 -6.262793
9699 485 1 25.623372 6.213139 -6.190908
9700 485 1 26.593372 6.186950 -6.156234
9701 486 1 -0.308429 4.568051 9.098360
9702 486 1 0.661571 4.543394 9.266848
9703 486 1 1.631571 4.445193 9.127587
9704 486 1 2.601571 4.489527 9.094727
9705 486 1 3.571571 4.538270 9.135119
9706 486 1 4.541571 4.586485 9.195804
9707 486 1 5.511571 4.484617 9.172938
9708 486 1 6.481571 4.581787 9.287684
9709 486 1 7.451571 4.471733 9.228462
9710 486 1 8.421571 4.510674 9.218593
9711 486 1 9.391571 4.515951 9.177033
9712 486 1 10.361571 4.490300 9.131990
9713 486 1 11.331571 4.492277 9.148502
9714 486 1 12.301571 4.413747 9.261301
9715 486 1 13.271571 4.574957 9.252545
9716 486 1 14.241571 4.473970 9.260486
9717 486 1 15.211571 4.601262 9.271875
9718 486 1 16.181571 4.411616 9.158207
9719 486 1 17.151571 4.553137 9.257922
9720 486 1 18.121571 4.460191 9.159309
9721 487 1 -5.351259 -1.406457 5.603806
9722 487 1 -4.381259 -1.400465 5.576645
9723 487 1 -3.411259 -1.415555 5.581989
9724 487 1 -2.441259 -1.350513 5.503726
9725 487 1 -1.471259 -1.509331 5.548628
9726 487 1 -0.501259 -1.372006 5.595076
9727 487 1 0.468741 -1.378625 5.545969
9728 487 1 1.438741 -1.527049 5.541925
9729 487 1 2.408741 -1.487715 5.602778
9730 487 1 3.378741 -1.405751 5.442921
9731 487 1 4.348741 -1.405804 5.493283
9732 487 1 5.318741 -1.447576 5.595117
9733 487 1 6.288741 -1.351305 5.626422
9734 487 1 7.258741 -1.423565 5.555848
9735 487 1 8.228741 -1.440859 5.555758
9736 487 1 9.198741 -1.395970 5.463730
9737 487 1 10.168741 -1.386602 5.470617
9738 487 1 11.138741 -1.363572 5.469857
9739 487 1 12.108741 -1.458455 5.510297
9740 487 1 13.078741 -1.447921 5.626125
9741 488 1 3.783003 1.281810 -7.164571
9742 488 1 4.753003 1.252424 -7.249409
9743 488 1 5.723003 1.198323 -7.232474
9744 488 1 6.693003 1.227111 -7.222482
9745 488 1 7.663003 1.286643 -7.187548
9746 488 1 8.633003 1.361605 -7.184320
9747 488 1 9.603003 1.392003 -7.129373
9748 488 1 10.573003 1.392546 -7.099209
9749 488 1 11.543003 1.232303 -7.157443
9750 488 1 12.513003 1.307203 -7.179008
9751 488 1 13.483003 1.305040 -7.147855
9752 488 1 14.453003 1.266479 -7.103437
9753 488 1 15.423003 1.333466 -7.080197
9754 488 1 16.393003 1.363179 -7.185727
9755 488 1 17.363003 1.232985 -7.126182
9756 488 1 18.333003 1.392650 -7.149994
9757 488 1 19.303003 1.320226 -7.078374
9758 488 1 20.273003 1.193958 -7.092763
9759 488 1 21.243003 1.302975 -7.146408
9760 488 1 22.213003 1.391194 -7.161780
9761 489 1 -2.544956 -6.717367 -2.763187
9762 489 1 -1.574956 -6.779772 -2.679095
9763 489 1 -0.604956 -6.826365 -2.782185
9764 489 1 0.365044 -6.724223 -2.736585
9765 489 1 1.335044 -6.861341 -2.642553
9766 489 1 2.305044 -6.775424 -2.668286
9767 489 1 3.275044 -6.696127 -2.709263
9768 489 1 4.245044 -6.711152 -2.653746
9769 489 1 5.215044 -6.868235 -2.628273
9770 489 1 6.185044 -6.694669 -2.618762
9771 489 1 7.155044 -6.761760 -2.676294
9772 489 1 8.125044 -6.793156 -2.663361
9773 489 1 9.095044 -6.757328 -2.718759
9774 489 1 10.065044 -6.767988 -2.631712
9775 489 1 11.035044 -6.813374 -2.607264
9776 489 1 12.005044 -6.779409 -2.794141
9777 489 1 12.975044 -6.887169 -2.687057
9778 489 1 13.945044 -6.875342 -2.708211
9779 489 1 14.915044 -6.751532 -2.788910
9780 489 1 15.885044 -6.701800 -2.689818
9781 490 1 0.831147 -9.859174 -7.424546
9782 490 1 1.801147 -9.925843 -7.494259
9783 490 1 2.771147 -9.776217 -7.427777
9784 490 1 3.741147 -9.871333 -7.412967
9785 490 1 4.711147 -9.746283 -7.307973
9786 490 1 5.681147 -9.766741 -7.339140
9787 490 1 6.651147 -9.790757 -7.438115
9788 490 1 7.621147 -9.908511 -7.483028
9789 490 1 8.591147 -9.795234 -7.375340
9790 490 1 9.561147 -9.920541 -7.468037
9791 490 1 10.531147 -9.819527 -7.322454
9792 490 1 11.501147 -9.794994 -7.498811
9793 490 1 12.471147 -9.926429 -7.405792
9794 490 1 13.441147 -9.858897 -7.409853
9795 490 1 14.411147 -9.899228 -7.310232
9796 490 1 15.381147 -9.934135 -7.491237
9797 490 1 16.351147 -9.924834 -7.467856
9798 490 1 17.321147 -9.842751 -7.477522
9799 490 1 18.291147 -9.753100 -7.397259
9800 490 1 19.261147 -9.938189 -7.383772
9801 491 1 2.052066 -7.799103 4.375691
9802 491 1 3.022066 -7.897040 4.400991
9803 491 1 3.992066 -7.704019 4.436961
9804 491 1 4.962066 -7.700238 4.399890
9805 491 1 5.932066 -7.847777 4.389495
9806 491 1 6.902066 -7.714722 4.341899
9807 491 1 7.872066 -7.878708 4.413474
9808 491 1 8.842066 -7.810564 4.433438
9809 491 1 9.812066 -7.831534 4.434378
9810 491 1 10.782066 -7.711116 4.365313
9811 491 1 11.752066 -7.834243 4.481274
9812 491 1 12.722066 -7.788032 4.462972
9813 491 1 13.692066 -7.714304 4.381470
9814 491 1 14.662066 -7.773179 4.449256
9815 491 1 15.632066 -7.820503 4.505993
9816 491 1 16.602066 -7.870445 4.474780
9817 491 1 17.572066 -7.801096 4.331878
9818 491 1 18.542066 -7.836112 4.476861
9819 491 1 19.512066 -7.869294 4.512861
9820 491 1 20.482066 -7.816559 4.354682
9821 492 1 -0.816210 1.959073 6.440988
9822 492 1 0.153790 1.922996 6.402778
9823 492 1 1.123790 1.973826 6.445925
9824 492 1 2.093790 1.953390 6.459330
9825 492 1 3.063790 1.899420 6.412190
9826 492 1 4.033790 1.889860 6.317232
9827 492 1 5.003790 1.931063 6.292644
9828 492 1 5.973790 1.976590 6.447130
9829 492 1 6.943790 1.965521 6.424931
9830 492 1 7.913790 2.045704 6.467729
9831 492 1 8.883790 1.926404 6.299821
9832 492 1 9.853790 1.871548 6.283415
9833 492 1 10.823790 1.944814 6.335851
9834 492 1 11.793790 2.043780 6.417867
9835 492 1 12.763790 1.859147 6.473862
9836 492 1 13.733790 1.982268 6.439315
9837 492 1 14.703790 1.994070 6.367995
9838 492 1 15.673790 2.046987 6.400118
9839 492 1 16.643790 1.942730 6.396824
9840 492 1 17.613790 1.944654 6.410922
9841 493 1 2.474176 -0.992874 -2.642634
9842 493 1 3.444176 -0.880937 -2.649851
9843 493 1 4.414176 -0.873287 -2.561519
9844 493 1 5.384176 -1.008746 -2.605887
9845 493 1 6.354176 -0.918962 -2.460618
9846 493 1 7.324176 -1.000579 -2.574048
9847 493 1 8.294176 -0.942455 -2.491111
9848 493 1 9.264176 -0.878381 -2.609644
9849 493 1 10.234176 -1.024162 -2.474997
9850 493 1 11.204176 -0.868641 -2.462312
9851 493 1 12.174176 -0.910166 -2.459704
9852 493 1 13.144176 -0.998228 -2.633867
9853 493 1 14.114176 -0.911596 -2.547675
9854 493 1 15.084176 -0.885079 -2.651071
9855 493 1 16.054176 -0.994187 -2.591030
9856 493 1 17.024176 -0.939931 -2.624172
9857 493 1 17.994176 -0.967568 -2.625618
9858 493 1 18.964176 -0.845664 -2.474365
9859 493 1 19.934176 -0.875672 -2.595908
9860 493 1 20.904176 -0.943331 -2.472016
9861 494 1 5.918867 -1.531433 -1.239175
9862 494 1 6.888867 -1.575309 -1.137780
9863 494 1 7.858867 -1.644831 -1.195005
9864 494 1 8.828867 -1.614661 -1.135368
9865 494 1 9.798867 -1.525654 -1.140409
9866 494 1 10.768867 -1.603563 -1.208458
9867 494 1 11.738867 -1.578872 -1.119950
9868 494 1 12.708867 -1.567115 -1.246033
9869 494 1 13.678867 -1.563489 -1.151374
9870 494 1 14.648867 -1.595926 -1.107824
9871 494 1 15.618867 -1.489440 -1.189558
9872 494 1 16.588867 -1.490788 -1.117646
9873 494 1 17.558867 -1.487790 -1.255779
9874 494 1 18.528867 -1.656823 -1.142124
9875 494 1 19.498867 -1.632272 -1.234541
9876 494 1 20.468867 -1.668424 -1.234856
9877 494 1 21.438867 -1.489318 -1.197232
9878 494 1 22.408867 -1.561621 -1.109305
9879 494 1 23.378867 -1.547240 -1.200618
9880 494 1 24.348867 -1.613738 -1.152289
9881 495 1 4.269135 -0.022530 2.760764
9882 495 1 5.239135 -0.110574 2.607232
9883 495 1 6.209135 -0.206959 2.704964
9884 495 1 7.179135 -0.193334 2.580449
9885 495 1 8.149135 -0.089506 2.691592
9886 495 1 9.119135 -0.122872 2.743951
9887 495 1 10.089135 -0.058571 2.624530
9888 495 1 11.059135 -0.055883 2.642156
9889 495 1 12.029135 -0.070371 2.622569
9890 495 1 12.999135 -0.204773 2.712661
9891 495 1 13.969135 -0.127787 2.686945
9892 495 1 14.939135 -0.143833 2.722022
9893 495 1 15.909135 -0.074413 2.622004
9894 495 1 16.879135 -0.045732 2.694496
9895 495 1 17.849135 -0.085921 2.643710
9896 495 1 18.819135 -0.120908 2.639541
9897 495 1 19.789135 -0.097480 2.757931
9898 495 1 20.759135 -0.201101 2.592726
9899 495 1 21.729135 -0.188082 2.586777
9900 495 1 22.699135 -0.063838 2.650562
9901 496 1 -1.712692 3.176895 -1.488808
9902 496 1 -0.742692 3.210884 -1.584626
9903 496 1 0.227308 3.080578 -1.568747
9904 496 1 1.197308 3.163261 -1.511480
9905 496 1 2.167308 3.227209 -1.497508
9906 496 1 3.137308 3.212267 -1.539985
9907 496 1 4.107308 3.095012 -1.604500
9908 496 1 5.077308 3.215257 -1.611168
9909 496 1 6.047308 3.100216 -1.573486
9910 496 1 7.017308 3.174961 -1.489863
9911 496 1 7.987308 3.224236 -1.559768
9912 496 1 8.957308 3.160824 -1.508900
9913 496 1 9.927308 3.050606 -1.507645
9914 496 1 10.897308 3.121787 -1.537939
9915 496 1 11.867308 3.163312 -1.594101
9916 496 1 12.837308 3.213134 -1.509992
9917 496 1 13.807308 3.140487 -1.513161
9918 496 1 14.777308 3.169838 -1.556003
9919 496 1 15.747308 3.134311 -1.558999
9920 496 1 16.717308 3.232007 -1.520443
9921 497 1 -6.002002 -0.560868 -7.002833
9922 497 1 -5.032002 -0.460389 -7.102698
9923 497 1 -4.062002 -0.447659 -7.086936
9924 497 1 -3.092002 -0.586779 -7.070746
9925 497 1 -2.122002 -0.415085 -7.040025
9926 497 1 -1.152002 -0.433653 -6.992441
9927 497 1 -0.182002 -0.565906 -7.158412
9928 497 1 0.787998 -0.539269 -7.016908
9929 497 1 1.757998 -0.450531 -7.120312
9930 497 1 2.727998 -0.586281 -7.043391
9931 497 1 3.697998 -0.591547 -7.098610
9932 497 1 4.667998 -0.424148 -7.078808
9933 497 1 5.637998 -0.538007 -6.968770
9934 497 1 6.607998 -0.444239 -7.092553
9935 497 1 7.577998 -0.435799 -7.010803
9936 497 1 8.547998 -0.520460 -7.127215
9937 497 1 9.517998 -0.554455 -7.116154
9938 497 1 10.487998 -0.540018 -7.130593
9939 497 1 11.457998 -0.536127 -7.090862
9940 497 1 12.427998 -0.407776 -7.061192
9941 498 1 -7.933432 -7.858704 -7.344670
9942 498 1 -6.963432 -7.939246 -7.397244
9943 498 1 -5.993432 -7.907530 -7.367351
9944 498 1 -5.023432 -7.857771 -7.271913
9945 498 1 -4.053432 -7.824851 -7.217218
9946 498 1 -3.083432 -7.768008 -7.382561
9947 498 1 -2.113432 -7.862723 -7.289819
9948 498 1 -1.143432 -7.747725 -7.250900
9949 498 1 -0.173432 -7.859097 -7.322781
9950 498 1 0.796568 -7.943761 -7.293897
9951 498 1 1.766568 -7.813615 -7.297779
9952 498 1 2.736568 -7.760045 -7.400108
9953 498 1 3.706568 -7.872989 -7.328961
9954 498 1 4.676568 -7.848902 -7.271805
9955 498 1 5.646568 -7.869361 -7.344261
9956 498 1 6.616568 -7.894285 -7.382608
9957 498 1 7.586568 -7.808424 -7.322585
9958 498 1 8.556568 -7.933537 -7.363518
9959 498 1 9.526568 -7.852965 -7.296483
9960 498 1 10.496568 -7.882011 -7.350707
9961 499 1 6.970673 5.111536 2.608950
9962 499 1 7.940673 5.203700 2.589084
9963 499 1 8.910673 5.204591 2.535807
9964 499 1 9.880673 5.197806 2.622434
9965 499 1 10.850673 5.153498 2.532416
9966 499 1 11.820673 5.257252 2.649054
9967 499 1 12.790673 5.207735 2.552652
9968 499 1 13.760673 5.159837 2.556868
9969 499 1 14.730673 5.179837 2.603531
9970 499 1 15.700673 5.092216 2.638872
9971 499 1 16.670673 5.201902 2.509734
9972 499 1 17.640673 5.170905 2.597387
9973 499 1 18.610673 5.125576 2.637047
9974 499 1 19.580673 5.162488 2.507822
9975 499 1 20.550673 5.209179 2.471567
9976 499 1 21.520673 5.089099 2.493006
9977 499 1 22.490673 5.122860 2.585820
9978 499 1 23.460673 5.193196 2.539988
9979 499 1 24.430673 5.189721 2.629008
9980 499 1 25.400673 5.078534 2.619144
9981 500 1 -5.831174 -5.284384 3.935922
9982 500 1 -4.861174 -5.196793 3.878234
9983 500 1 -3.891174 -5.143963 3.877911
9984 500 1 -2.921174 -5.176516 3.851520
9985 500 1 -1.951174 -5.154609 3.980356
9986 500 1 -0.981174 -5.234470 3.993042
9987 500 1 -0.011174 -5.272875 3.935685
9988 500 1 0.958826 -5.222336 3.888372
9989 500 1 1.928826 -5.289493 3.872758
9990 500 1 2.898826 -5.221736 3.855938
9991 500 1 3.868826 -5.267342 3.858254
9992 500 1 4.838826 -5.143925 4.009708
9993 500 1 5.808826 -5.251308 3.936155
9994 500 1 6.778826 -5.266813 3.851504
9995 500 1 7.748826 -5.270481 3.876735
9996 500 1 8.718826 -5.136520 3.840736
9997 500 1 9.688826 -5.269752 3.996411
9998 500 1 10.658826 -5.239959 3.908562
9999 500 1 11.628826 -5.260159 4.011079
10000 500 1 12.598826 -5.276952 3.923708

Bonds

1 1 1 2
2 1 2 3
3 1 3 4
4 1 4 5
5 1 5 6
6 1 6 7
7 1 7 8
8 1 8 9
9 1 9 10
10 1 10 11
11 1 11 12
12 1 12 13
13 1 13 14
14 1 14 15
15 1 15 16
16 1 16 17
17 1 17 18
18 1 18 19
19 1 19 20
20 1 21 22
21 1 22 23
22 1 23 24
23 1 24 25
24 1 25 26
25 1 26 27
26 1 27 28
27 1 28 29
28 1 29 30
29 1 30 31
30 1 31 32
31 1 32 33
32 1 33 34
33 1 34 35
34 1 35 36
35 1 36 37
36 1 37 38
37 1 38 39
38 1 39 40
39 1 41 42
40 1 42 43
41 1 43 44
42 1 44 45
43 1 45 46
44 1 46 47
45 1 47 48
46 1 48 49
47 1 49 50
48 1 50 51
49 1 51 52
50 1 52 53
51 1 53 54
52 1 54 55
53 1 55 56
54 1 56 57
55 1 57 58
56 1 58 59
57 1 59 60
58 1 61 62
59 1 62 63
60 1 63 64
61 1 64 65
62 1 65 66
63 1 66 67
64 1 67 68
65 1 68 69
66 1 69 70
67 1 70 71
68 1 71 72
69 1 72 73
70 1 73 74
71 1 74 75
72 1 75 76
73 1 76 77
74 1 77 78
75 1 78 79
76 1 79 80
77 1 81 82
78 1 82 83
79 1 83 84
80 1 84 85
81 1 85 86
82 1 86 87
83 1 87 88
84 1 88 89
85 1 89 90
86 1 90 91
87 1 91 92
88 1 92 93
89 1 93 94
90 1 94 95
91 1 95 96
92 1 96 97
93 1 97 98
94 1 98 99
95 1 99 100
96 1 101 102
97 1 102 103
98 1 103 104
99 1 104 105
100 1 105 106
101 1 106 107
102 1 107 108
103 1 108 109
104 1 109 110
105 1 110 111
106 1 111 112
107 1 112 113
108 1 113 114
109 1 114 115
110 1 115 116
111 1 116 117
112 1 117 118
113 1 118 119
114 1 119 120
115 1 121 122
116 1 122 123
117 1 123 124
118 1 124 125
119 1 125 126
120 1 126 127
121 1 127 128
122 1 128 129
123 1 129 130
124 1 130 131
125 1 131 132
126 1 132 133
127 1 133 134
128 1 134 135
129 1 135 136
130 1 136 137
131 1 137 138
132 1 138 139
133 1 139 140
134 1 141 142
135 1 142 143
136 1 143 144
137 1 144 145
138 1 145 146
139 1 146 147
140 1 147 148
141 1 148 149
142 1 149 150
143 1 150 151
144 1 151 152
145 1 152 153
146 1 153 154
147 1 154 155
148 1 155 156
149 1 156 157
150 1 157 158
151 1 158 159
152 1 159 160
153 1 161 162
154 1 162 163
155 1 163 164
156 1 164 165
157 1 165 166
158 1 166 167
159 1 167 168
160 1 168 169
161 1 169 170
162 1 170 171
163 1 171 172
164 1 172 173
165 1 173 174
166 1 174 175
167 1 175 176
168 1 176 177
169 1 177 178
170 1 178 179
171 1 179 180
172 1 181 182
173 1 182 183
174 1 183 184
175 1 184 185
176 1 185 186
177 1 186 187
178 1 187 188
179 1 188 189
180 1 189 190
181 1 190 191
182 1 191 192
183 1 192 193
184 1 193 194
185 1 194 195
186 1 195 196
187 1 196 197
188 1 197 198
189 1 198 199
190 1 199 200
191 1 201 202
192 1 202 203
193 1 203 204
194 1 204 205
195 1 205 206
196 1 206 207
197 1 207 208
198 1 208 209
199 1 209 210
200 1 210 211
201 1 211 212
202 1 212 213
203 1 213 214
204 1 214 215
205 1 215 216
206 1 216 217
207 1 217 218
208 1 218 219
209 1 219 220
210 1 221 222
211 1 222 223
212 1 223 224
213 1 224 225
214 1 225 226
215 1 226 227
216 1 227 228
217 1 228 229
218 1 229 230
219 1 230 231
220 1 231 232
221 1 232 233
222 1 233 234
223 1 234 235
224 1 235 236
225 1 236 237
226 1 237 238
227 1 238 239
228 1 239 240
229 1 241 242
230 1 242 243
231 1 243 244
232 1 244 245
233 1 245 246
234 1 246 247
235 1 247 248
236 1 248 249
237 1 249 250
238 1 250 251
239 1 251 252
240 1 252 253
241 1 253 254
242 1 254 255
243 1 255 256
244 1 256 257
245 1 257 258
246 1 258 259
247 1 259 260
248 1 261 262
249 1 262 263
250 1 263 264
251 1 264 265
252 1 265 266
253 1 266 267
254 1 267 268
255 1 268 269
256 1 269 270
257 1 270 271
258 1 271 272
259 1 272 273
260 1 273 274
261 1 274 275
262 1 275 276
263 1 276 277
264 1 277 278
265 1 278 279
266 1 279 280
267 1 281 282
268 1 282 283
269 1 283 284
270 1 284 285
271 1 285 286
272 1 286 287
273 1 287 288
274 1 288 289
275 1 289 290
276 1 290 291
277 1 291 292
278 1 292 293
279 1 293 294
280 1 294 295
281 1 295 296
282 1 296 297
283 1 297 298
284 1 298 299
285 1 299 300
286 1 301 302
287 1 302 303
288 1 303 304
289 1 304 305
290 1 305 306
291 1 306 307
292 1 307 308
293 1 308 309
294 1 309 310
295 1 310 311
296 1 311 312
297 1 312 313
298 1 313 314
299 1 314 315
300 1 315 316
301 1 316 317
302 1 317 318
303 1 318 319
304 1 319 320
305 1 321 322
306 1 322 323
307 1 323 324
308 1 324 325
309 1 325 326
310 1 326 327
311 1 327 328
312 1 328 329
313 1 329 330
314 1 330 331
315 1 331 332
316 1 332 333
317 1 333 334
318 1 334 335
319 1 335 336
320 1 336 337
321 1 337 338
322 1 338 339
323 1 339 340
324 1 341 342
325 1 342 343
326 1 343 344
327 1 344 345
328 1 345 346
329 1 346 347
330 1 347 348
331 1 348 349
332 1 349 350
333 1 350 351
334 1 351 352
335 1 352 353
336 1 353 354
337 1 354 355
338 1 355 356
339 1 356 357
340 1 357 358
341 1 358 359
342 1 359 360
343 1 361 362
344 1 362 363
345 1 363 364
346 1 364 365
347 1 365 366
348 1 366 367
349 1 367 368
350 1 368 369
351 1 369 370
352 1 370 371
353 1 371 372
354 1 372 373
355 1 373 374
356 1 374 375
357 1 375 376
358 1 376 377
359 1 377 378
360 1 378 379
361 1 379 380
362 1 381 382
363 1 382 383
364 1 383 384
365 1 384 385
366 1 385 386
367 1 386 387
368 1 387 388
369 1 388 389
370 1 389 390
371 1 390 391
372 1 391 392
373 1 392 393
374 1 393 394
375 1 394 395
376 1 395 396
377 1 396 397
378 1 397 398
379 1 398 399
380 1 399 400
381 1 401 402
382 1 402 403
383 1 403 404
384 1 404 405
385 1 405 406
386 1 406 407
387 1 407 408
388 1 408 409
389 1 409 410
390 1 410 411
391 1 411 412
392 1 412 413
393 1 413 414
394 1 414 415
395 1 415 416
396 1 416 417
397 1 417 418
398 1 418 419
399 1 419 420
400 1 421 422
401 1 422 423
402 1 423 424
403 1 424 425
404 1 425 426
405 1 426 427
406 1 427 428
407 1 428 429
408 1 429 430
409 1 430 431
410 1 431 432
411 1 432 433
412 1 433 434
413 1 434 435
414 1 435 436
415 1 436 437
416 1 437 438
417 1 438 439
418 1 439 440
419 1 441 442
420 1 442 443
421 1 443 444
422 1 444 445
423 1 445 446
424 1 446 447
425 1 447 448
426 1 448 449
427 1 449 450
428 1 450 451
429 1 451 452
430 1 452 453
431 1 453 454
432 1 454 455
433 1 455 456
434 1 456 457
435 1 457 458
436 1 458 459
437 1 459 460
438 1 461 462
439 1 462 463
440 1 463 464
441 1 464 465
442 1 465 466
443 1 466 467
444 1 467 468
445 1 468 469
446 1 469 470
447 1 470 471
448 1 471 472
449 1 472 473
450 1 473 474
451 1 474 475
452 1 475 476
453 1 476 477
454 1 477 478
455 1 478 479
456 1 479 480
457 1 481 482
458 1 482 483
459 1 483 484
460 1 484 485
461 1 485 486
462 1 486 487
463 1 487 488
464 1 488 489
465 1 489 490
466 1 490 491
467 1 491 492
468 1 492 493
469 1 493 494
470 1 494 495
471 1 495 496
472 1 496 497
473 1 497 498
474 1 498 499
475 1 499 500
476 1 501 502
477 1 502 503
478 1 503 504
479 1 504 505
480 1 505 506
481 1 506 507
482 1 507 508
483 1 508 509
484 1 509 510
485 1 510 511
486 1 511 512
487 1 512 513
488 1 513 514
489 1 514 515
490 1 515 516
491 1 516 517
492 1 517 518
493 1 518 519
494 1 519 520
495 1 521 522
496 1 522 523
497 1 523 524
498 1 524 525
499 1 525 526
500 1 526 527
501 1 527 528
502 1 528 529
503 1 529 530
504 1 530 531
505 1 531 532
506 1 532 533
507 1 533 534
508 1 534 535
509 1 535 536
510 1 536 537
511 1 537 538
512 1 538 539
513 1 539 540
514 1 541 542
515 1 542 543
516 1 543 544
517 1 544 545
518 1 545 546
519 1 546 547
520 1 547 548
521 1 548 549
522 1 549 550
523 1 550 551
524 1 551 552
525 1 552 553
526 1 553 554
527 1 554 555
528 1 555 556
529 1 556 557
530 1 557 558
531 1 558 559
532 1 559 560
533 1 561 562
534 1 562 563
535 1 563 564
536 1 564 565
537 1 565 566
538 1 566 567
539 1 567 568
540 1 568 569
541 1 569 570
542 1 570 571
543 1 571 572
544 1 572 573
545 1 573 574
546 1 574 575
547 1 575 576
548 1 576 577
549 1 577 578
550 1 578 579
551 1 579 580
552 1 581 582
553 1 582 583
554 1 583 584
555 1 584 585
556 1 585 586
557 1 586 587
558 1 587 588
559 1 588 589
560 1 589 590
561 1 590 591
562 1 591 592
563 1 592 593
564 1 593 594
565 1 594 595
566 1 595 596
567 1 596 597
568 1 597 598
569 1 598 599
570 1 599 600
571 1 601 602
572 1 602 603
573 1 603 604
574 1 604 605
575 1 605 606
576 1 606 607
577 1 607 608
578 1 608 609
579 1 609 610
580 1 610 611
581 1 611 612
582 1 612 613
583 1 613 614
584 1 614 615
585 1 615 616
586 1 616 617
587 1 617 618
588 1 618 619
589 1 619 620
590 1 621 622
591 1 622 623
592 1 623 624
593 1 624 625
594 1 625 626
595 1 626 627
596 1 627 628
597 1 628 629
598 1 629 630
599 1 630 631
600 1 631 632
601 1 632 633
602 1 633 634
603 1 634 635
604 1 635 636
605 1 636 637
606 1 637 638
607 1 638 639
608 1 639 640
609 1 641 642
610 1 642 643
611 1 643 644
612 1 644 645
613 1 645 646
614 1 646 647
615 1 647 648
616 1 648 649
617 1 649 650
618 1 650 651
619 1 651 652
620 1 652 653
621 1 653 654
622 1 654 655
623 1 655 656
624 1 656 657
625 1 657 658
626 1 658 659
627 1 659 660
628 1 661 662
629 1 662 663
630 1 663 664
631 1 664 665
632 1 665 666
633 1 666 667
634 1 667 668
635 1 668 669
636 1 669 670
637 1 670 671
638 1 671 672
639 1 672 673
640 1 673 674
641 1 674 675
642 1 675 676
643 1 676 677
644 1 677 678
645 1 678 679
646 1 679 680
647 1 681 682
648 1 682 683
649 1 683 684
650 1 684 685
651 1 685 686
652 1 686 687
653 1 687 688
654 1 688 689
655 1 689 690
656 1 690 691
657 1 691 692
658 1 692 693
659 1 693 694
660 1 694 695
661 1 695 696
662 1 696 697
663 1 697 698
664 1 698 699
665 1 699 700
666 1 701 702
667 1 702 703
668 1 703 704
669 1 704 705
670 1 705 706
671 1 706 707
672 1 707 708
673 1 708 709
674 1 709 710
675 1 710 711
676 1 711 712
677 1 712 713
678 1 713 714
679 1 714 715
680 1 715 716
681 1 716 717
682 1 717 718
683 1 718 719
684 1 719 720
685 1 721 722
686 1 722 723
687 1 723 724
688 1 724 725
689 1 725 726
690 1 726 727
691 1 727 728
692 1 728 729
693 1 729 730
694 1 730 731
695 1 731 732
696 1 732 733
697 1 733 734
698 1 734 735
699 1 735 736
700 1 736 737
701 1 737 738
702 1 738 739
703 1 739 740
704 1 741 742
705 1 742 743
706 1 743 744
707 1 744 745
708 1 745 746
709 1 746 747
710 1 747 748
711 1 748 749
712 1 749 750
713 1 750 751
714 1 751 752
715 1 752 753
716 1 753 754
717 1 754 755
718 1 755 756
719 1 756 757
720 1 757 758
721 1 758 759
722 1 759 760
723 1 761 762
724 1 762 763
725 1 763 764
726 1 764 765
727 1 765 766
728 1 766 767
729 1 767 768
730 1 768 769
731 1 769 770
732 1 770 771
733 1 771 772
734 1 772 773
735 1 773 774
736 1 774 775
737 1 775 776
738 1 776 777
739 1 777 778
740 1 778 779
741 1 779 780
742 1 781 782
743 1 782 783
744 1 783 784
745 1 784 785
746 1 785 786
747 1 786 787
748 1 787 788
749 1 788 789
750 1 789 790
751 1 790 791
752 1 791 792
753 1 792 793
754 1 793 794
755 1 794 795
756 1 795 796
757 1 796 797
758 1 797 798
759 1 798 799
760 1 799 800
761 1 801 802
762 1 802 803
763 1 803 804
764 1 804 805
765 1 805 806
766 1 806 807
767 1 807 808
768 1 808 809
769 1 809 810
770 1 810 811
771 1 811 812
772 1 812 813
773 1 813 814
774 1 814 815
775 1 815 816
776 1 816 817
777 1 817 818
778 1 818 819
779 1 819 820
780 1 821 822
781 1 822 823
782 1 823 824
783 1 824 825
784 1 825 826
785 1 826 827
786 1 827 828
787 1 828 829
788 1 829 830
789 1 830 831
790 1 831 832
791 1 832 833
792 1 833 834
793 1 834 835
794 1 835 836
795 1 836 837
796 1 837 838
797 1 838 839
798 1 839 840
799 1 841 842
800 1 842 843
801 1 843 844
802 1 844 845
803 1 845 846
804 1 846 847
805 1 847 848
806 1 848 849
807 1 849 850
808 1 850 851
809 1 851 852
810 1 852 853
811 1 853 854
812 1 854 855
813 1 855 856
814 1 856 857
815 1 857 858
816 1 858 859
817 1 859 860
818 1 861 862
819 1 862 863
820 1 863 864
821 1 864 865
822 1 865 866
823 1 866 867
824 1 867 868
825 1 868 869
826 1 869 870
827 1 870 871
828 1 871 872
829 1 872 873
830 1 873 874
831 1 874 875
832 1 875 876
833 1 876 877
834 1 877 878
835 1 878 879
836 1 879 880
837 1 881 882
838 1 882 883
839 1 883 884
840 1 884 885
841 1 885 886
842 1 886 887
843 1 887 888
844 1 888 889
845 1 889 890
846 1 890 891
847 1 891 892
848 1 892 893
849 1 893 894
850 1 894 895
851 1 895 896
852 1 896 897
853 1 897 898
854 1 898 899
855 1 899 900
856 1 901 902
857 1 902 903
858 1 903 904
859 1 904 905
860 1 905 906
861 1 906 907
862 1 907 908
863 1 908 909
864 1 909 910
865 1 910 911
866 1 911 912
867 1 912 913
868 1 913 914
869 1 914 915
870 1 915 916
871 1 916 917
872 1 917 918
873 1 918 919
874 1 919 920
875 1 921 922
876 1 922 923
877 1 923 924
878 1 924 925
879 1 925 926
880 1 926 927
881 1 927 928
882 1 928 929
883 1 929 930
884 1 930 931
885 1 931 932
886 1 932 933
887 1 933 934
888 1 934 935
889 1 935 936
890 1 936 937
891 1 937 938
892 1 938 939
893 1 939 940
894 1 941 942
895 1 942 943
896 1 943 944
897 1 944 945
898 1 945 946
899 1 946 947
900 1 947 948
901 1 948 949
902 1 949 950
903 1 950 951
904 1 951 952
905 1 952 953
906 1 953 954
907 1 954 955
908 1 955 956
909 1 956 957
910 1 957 958
911 1 958 959
912 1 959 960
913 1 961 962
914 1 962 963
915 1 963 964
916 1 964 965
917 1 965 966
918 1 966 967
919 1 967 968
920 1 968 969
921 1 969 970
922 1 970 971
923 1 971 972
924 1 972 973
925 1 973 974
926 1 974 975
927 1 975 976
928 1 976 977
929 1 977 978
930 1 978 979
931 1 979 980
932 1 981 982
933 1 982 983
934 1 983 984
935 1 984 985
936 1 985 986
937 1 986 987
938 1 987 988
939 1 988 989
940 1 989 990
941 1 990 991
942 1 991 992
943 1 992 993
944 1 993 994
945 1 994 995
946 1 995 996
947 1 996 997
948 1 997 998
949 1 998 999
950 1 999 1000
951 1 1001 1002
952 1 1002 1003
953 1 1003 1004
954 1 1004 1005
955 1 1005 1006
956 1 1006 1007
957 1 1007 1008
958 1 1008 1009
959 1 1009 1010
960 1 1010 1011
961 1 1011 1012
962 1 1012 1013
963 1 1013 1014
964 1 1014 1015
965 1 1015 1016
966 1 1016 1017
967 1 1017 1018
968 1 1018 1019
969 1 1019 1020
970 1 1021 1022
971 1 1022 1023
972 1 1023 1024
973 1 1024 1025
974 1 1025 1026
975 1 1026 1027
976 1 1027 1028
977 1 1028 1029
978 1 1029 1030
979 1 1030 1031
980 1 1031 1032
981 1 1032 1033
982 1 1033 1034
983 1 1034 1035
984 1 1035 1036
985 1 1036 1037
986 1 1037 1038
987 1 1038 1039
988 1 1039 1040
989 1 1041 1042
990 1 1042 1043
991 1 1043 1044
992 1 1044 1045
993 1 1045 1046
994 1 1046 1047
995 1 1047 1048
996 1 1048 1049
997 1 1049 1050
998 1 1050 1051
999 1 1051 1052
1000 1 1052 1053
1001 1 1053 1054
1002 1 1054 1055
1003 1 1055 1056
1004 1 1056 1057
1005 1 1057 1058
1006 1 1058 1059
1007 1 1059 1060
1008 1 1061 1062
1009 1 1062 1063
1010 1 1063 1064
1011 1 1064 1065
1012 1 1065 1066
1013 1 1066 1067
1014 1 1067 1068
1015 1 1068 1069
1016 1 1069 1070
1017 1 1070 1071
1018 1 1071 1072
1019 1 1072 1073
1020 1 1073 1074
1021 1 1074 1075
1022 1 1075 1076
1023 1 1076 1077
1024 1 1077 1078
1025 1 1078 1079
1026 1 1079 1080
1027 1 1081 1082
1028 1 1082 1083
1029 1 1083 1084
1030 1 1084 1085
1031 1 1085 1086
1032 1 1086 1087
1033 1 1087 1088
1034 1 1088 1089
1035 1 1089 1090
1036 1 1090 1091
1037 1 1091 1092
1038 1 1092 1093
1039 1 1093 1094
1040 1 1094 1095
1041 1 1095 1096
1042 1 1096 1097
1043 1 1097 1098
1044 1 1098 1099
1045 1 1099 1100
1046 1 1101 1102
1047 1 1102 1103
1048 1 1103 1104
1049 1 1104 1105
1050 1 1105 1106
1051 1 1106 1107
1052 1 1107 1108
1053 1 1108 1109
1054 1 1109 1110
1055 1 1110 1111
1056 1 1111 1112
1057 1 1112 1113
1058 1 1113 1114
1059 1 1114 1115
1060 1 1115 1116
1061 1 1116 1117
1062 1 1117 1118
1063 1 1118 1119
1064 1 1119 1120
1065 1 1121 1122
1066 1 1122 1123
1067 1 1123 1124
1068 1 1124 1125
1069 1 1125 1126
1070 1 1126 1127
1071 1 1127 1128
1072 1 1128 1129
1073 1 1129 1130
1074 1 1130 1131
1075 1 1131 1132
1076 1 1132 1133
1077 1 1133 1134
1078 1 1134 1135
1079 1 1135 1136
1080 1 1136 1137
1081 1 1137 1138
1082 1 1138 1139
1083 1 1139 1140
1084 1 1141 1142
1085 1 1142 1143
1086 1 1143 1144
1087 1 1144 1145
1088 1 1145 1146
1089 1 1146 1147
1090 1 1147 1148
1091 1 1148 1149
1092 1 1149 1150
1093 1 1150 1151
1094 1 1151 1152
1095 1 1152 1153
1096 1 1153 1154
1097 1 1154 1155
1098 1 1155 1156
1099 1 1156 1157
1100 1 1157 1158
1101 1 1158 1159
1102 1 1159 1160
1103 1 1161 1162
1104 1 1162 1163
1105 1 1163 1164
1106 1 1164 1165
1107 1 1165 1166
1108 1 1166 1167
1109 1 1167 1168
1110 1 1168 1169
1111 1 1169 1170
1112 1 1170 1171
1113 1 1171 1172
1114 1 1172 1173
1115 1 1173 1174
1116 1 1174 1175
1117 1 1175 1176
1118 1 1176 1177
1119 1 1177 1178
1120 1 1178 1179
1121 1 1179 1180
1122 1 1181 1182
1123 1 1182 1183
1124 1 1183 1184
1125 1 1184 1185
1126 1 1185 1186
1127 1 1186 1187
1128 1 1187 1188
1129 1 1188 1189
1130 1 1189 1190
1131 1 1190 1191
1132 1 1191 1192
1133 1 1192 1193
1134 1 1193 1194
1135 1 1194 1195
1136 1 1195 1196
1137 1 1196 1197
1138 1 1197 1198
1139 1 1198 1199
1140 1 1199 1200
1141 1 1201 1202
1142 1 1202 1203
1143 1 1203 1204
1144 1 1204 1205
1145 1 1205 1206
1146 1 1206 1207
1147 1 1207 1208
1148 1 1208 1209
1149 1 1209 1210
1150 1 1210 1211
1151 1 1211 1212
1152 1 1212 1213
1153 1 1213 1214
1154 1 1214 1215
1155 1 1215 1216
1156 1 1216 1217
1157 1 1217 1218
1158 1 1218 1219
1159 1 1219 1220
1160 1 1221 1222
1161 1 1222 1223
1162 1 1223 1224
1163 1 1224 1225
1164 1 1225 1226
1165 1 1226 1227
1166 1 1227 1228
1167 1 1228 1229
1168 1 1229 1230
1169 1 1230 1231
1170 1 1231 1232
1171 1 1232 1233
1172 1 1233 1234
1173 1 1234 1235
1174 1 1235 1236
1175 1 1236 1237
1176 1 1237 1238
1177 1 1238 1239
1178 1 1239 1240
1179 1 1241 1242
1180 1 1242 1243
1181 1 1243 1244
1182 1 1244 1245
1183 1 1245 1246
1184 1 1246 1247
1185 1 1247 1248
1186 1 1248 1249
1187 1 1249 1250
1188 1 1250 1251
1189 1 1251 1252
1190 1 1252 1253
1191 1 1253 1254
1192 1 1254 1255
1193 1 1255 1256
1194 1 1256 1257
1195 1 1257 1258
1196 1 1258 1259
1197 1 1259 1260
1198 1 1261 1262
1199 1 1262 1263
1200 1 1263 1264
1201 1 1264 1265
1202 1 1265 1266
1203 1 1266 1267
1204 1 1267 1268
1205 1 1268 1269
1206 1 1269 1270
1207 1 1270 1271
1208 1 1271 1272
1209 1 1272 1273
1210 1 1273 1274
1211 1 1274 1275
1212 1 1275 1276
1213 1 1276 1277
1214 1 1277 1278
1215 1 1278 1279
1216 1 1279 1280
1217 1 1281 1282
1218 1 1282 1283
1219 1 1283 1284
1220 1 1284 1285
1221 1 1285 1286
1222 1 1286 1287
1223 1 1287 1288
1224 1 1288 1289
1225 1 1289 1290
1226 1 1290 1291
1227 1 1291 1292
1228 1 1292 1293
1229 1 1293 1294
1230 1 1294 1295
1231 1 1295 1296
1232 1 1296 1297
1233 1 1297 1298
1234 1 1298 1299
1235 1 1299 1300
1236 1 1301 1302
1237 1 1302 1303
1238 1 1303 1304
1239 1 1304 1305
1240 1 1305 1306
1241 1 1306 1307
1242 1 1307 1308
1243 1 1308 1309
1244 1 1309 1310
1245 1 1310 1311
1246 1 1311 1312
1247 1 1312 1313
1248 1 1313 1314
1249 1 1314 1315
1250 1 1315 1316
1251 1 1316 1317
1252 1 1317 1318
1253 1 1318 1319
1254 1 1319 1320
1255 1 1321 1322
1256 1 1322 1323
1257 1 1323 1324
1258 1 1324 1325
1259 1 1325 1326
1260 1 1326 1327
1261 1 1327 1328
1262 1 1328 1329
1263 1 1329 1330
1264 1 1330 1331
1265 1 1331 1332
1266 1 1332 1333
1267 1 1333 1334
1268 1 1334 1335
1269 1 1335 1336
1270 1 1336 1337
1271 1 1337 1338
1272 1 1338 1339
1273 1 1339 1340
1274 1 1341 1342
1275 1 1342 1343
1276 1 1343 1344
1277 1 1344 1345
1278 1 1345 1346
1279 1 1346 1347
1280 1 1347 1348
1281 1 1348 1349
1282 1 1349 1350
1283 1 1350 1351
1284 1 1351 1352
1285 1 1352 1353
1286 1 1353 1354
1287 1 1354 1355
1288 1 1355 1356
1289 1 1356 1357
1290 1 1357 1358
1291 1 1358 1359
1292 1 1359 1360
1293 1 1361 1362
1294 1 1362 1363
1295 1 1363 1364
1296 1 1364 1365
1297 1 1365 1366
1298 1 1366 1367
1299 1 1367 1368
1300 1 1368 1369
1301 1 1369 1370
1302 1 1370 1371
1303 1 1371 1372
1304 1 1372 1373
1305 1 1373 1374
1306 1 1374 1375
1307 1 1375 1376
1308 1 1376 1377
1309 1 1377 1378
1310 1 1378 1379
1311 1 1379 1380
1312 1 1381 1382
1313 1 1382 1383
1314 1 1383 1384
1315 1 1384 1385
1316 1 1385 1386
1317 1 1386 1387
1318 1 1387 1388
1319 1 1388 1389
1320 1 1389 1390
1321 1 1390 1391
1322 1 1391 1392
1323 1 1392 1393
1324 1 1393 1394
1325 1 1394 1395
1326 1 1395 1396
1327 1 1396 1397
1328 1 1397 1398
1329 1 1398 1399
1330 1 1399 1400
1331 1 1401 1402
1332 1 1402 1403
1333 1 1403 1404
1334 1 1404 1405
1335 1 1405 1406
1336 1 1406 1407
1337 1 1407 1408
1338 1 1408 1409
1339 1 1409 1410
1340 1 1410 1411
1341 1 1411 1412
1342 1 1412 1413
1343 1 1413 1414
1344 1 1414 1415
1345 1 1415 1416
1346 1 1416 1417
1347 1 1417 1418
1348 1 1418 1419
1349 1 1419 1420
1350 1 1421 1422
1351 1 1422 1423
1352 1 1423 1424
1353 1 1424 1425
1354 1 1425 1426
1355 1 1426 1427
1356 1 1427 1428
1357 1 1428 1429
1358 1 1429 1430
1359 1 1430 1431
1360 1 1431 1432
1361 1 1432 1433
1362 1 1433 1434
1363 1 1434 1435
1364 1 1435 1436
1365 1 1436 1437
1366 1 1437 1438
1367 1 1438 1439
1368 1 1439 1440
1369 1 1441 1442
1370 1 1442 1443
1371 1 1443 1444
1372 1 1444 1445
1373 1 1445 1446
1374 1 1446 1447
1375 1 1447 1448
1376 1 1448 1449
1377 1 1449 1450
1378 1 1450 1451
1379 1 1451 1452
1380 1 1452 1453
1381 1 1453 1454
1382 1 1454 1455
1383 1 1455 1456
1384 1 1456 1457
1385 1 1457 1458
1386 1 1458 1459
1387 1 1459 1460
1388 1 1461 1462
1389 1 1462 1463
1390 1 1463 1464
1391 1 1464 1465
1392 1 1465 1466
1393 1 1466 1467
1394 1 1467 1468
1395 1 1468 1469
1396 1 1469 1470
1397 1 1470 1471
1398 1 1471 1472
1399 1 1472 1473
1400 1 1473 1474
1401 1 1474 1475
1402 1 1475 1476
1403 1 1476 1477
1404 1 1477 1478
1405 1 1478 1479
1406 1 1479 1480
1407 1 1481 1482
1408 1 1482 1483
1409 1 1483 1484
1410 1 1484 1485
1411 1 1485 1486
1412 1 1486 1487
1413 1 1487 1488
1414 1 1488 1489
1415 1 1489 1490
1416 1 1490 1491
1417 1 1491 1492
1418 1 1492 1493
1419 1 1493 1494
1420 1 1494 1495
1421 1 1495 1496
1422 1 1496 1497
1423 1 1497 1498
1424 1 1498 1499
1425 1 1499 1500
1426 1 1501 1502
1427 1 1502 1503
1428 1 1503 1504
1429 1 1504 1505
1430 1 1505 1506
1431 1 1506 1507
1432 1 1507 1508
1433 1 1508 1509
1434 1 1509 1510
1435 1 1510 1511
1436 1 1511 1512
1437 1 1512 1513
1438 1 1513 1514
1439 1 1514 1515
1440 1 1515 1516
1441 1 1516 1517
1442 1 1517 1518
1443 1 1518 1519
1444 1 1519 1520
1445 1 1521 1522
1446 1 1522 1523
1447 1 1523 1524
1448 1 1524 1525
1449 1 1525 1526
1450 1 1526 1527
1451 1 1527 1528
1452 1 1528 1529
1453 1 1529 1530
1454 1 1530 1531
1455 1 1531 1532
1456 1 1532 1533
1457 1 1533 1534
1458 1 1534 1535
1459 1 1535 1536
1460 1 1536 1537
1461 1 1537 1538
1462 1 1538 1539
1463 1 1539 1540
1464 1 1541 1542
1465 1 1542 1543
1466 1 1543 1544
1467 1 1544 1545
1468 1 1545 1546
1469 1 1546 1547
1470 1 1547 1548
1471 1 1548 1549
1472 1 1549 1550
1473 1 1550 1551
1474 1 1551 1552
1475 1 1552 1553
1476 1 1553 1554
1477 1 1554 1555
1478 1 1555 1556
1479 1 1556 1557
1480 1 1557 1558
1481 1 1558 1559
1482 1 1559 1560
1483 1 1561 1562
1484 1 1562 1563
1485 1 1563 1564
1486 1 1564 1565
1487 1 1565 1566
1488 1 1566 1567
1489 1 1567 1568
1490 1 1568 1569
1491 1 1569 1570
1492 1 1570 1571
1493 1 1571 1572
1494 1 1572 1573
1495 1 1573 1574
1496 1 1574 1575
1497 1 1575 1576
1498 1 1576 1577
1499 1 1577 1578
1500 1 1578 1579
1501 1 1579 1580
1502 1 1581 1582
1503 1 1582 1583
1504 1 1583 1584
1505 1 1584 1585
1506 1 1585 1586
1507 1 1586 1587
1508 1 1587 1588
1509 1 1588 1589
1510 1 1589 1590
1511 1 1590 1591
1512 1 1591 1592
1513 1 1592 1593
1514 1 1593 1594
1515 1 1594 1595
1516 1 1595 1596
1517 1 1596 1597
1518 1 1597 1598
1519 1 1598 1599
1520 1 1599 1600
1521 1 1601 1602
1522 1 1602 1603
1523 1 1603 1604
1524 1 1604 1605
1525 1 1605 1606
1526 1 1606 1607
1527 1 1607 1608
1528 1 1608 1609
1529 1 1609 1610
1530 1 1610 1611
1531 1 1611 1612
1532 1 1612 1613
1533 1 1613 1614
1534 1 1614 1615
1535 1 1615 1616
1536 1 1616 1617
1537 1 1617 1618
1538 1 1618 1619
1539 1 1619 1620
1540 1 1621 1622
1541 1 1622 1623
1542 1 1623 1624
1543 1 1624 1625
1544 1 1625 1626
1545 1 1626 1627
1546 1 1627 1628
1547 1 1628 1629
1548 1 1629 1630
1549 1 1630 1631
1550 1 1631 1632
1551 1 1632 1633
1552 1 1633 1634
1553 1 1634 1635
1554 1 1635 1636
1555 1 1636 1637
1556 1 1637 1638
1557 1 1638 1639
1558 1 1639 1640
1559 1 1641 1642
1560 1 1642 1643
1561 1 1643 1644
1562 1 1644 1645
1563 1 1645 1646
1564 1 1646 1647
1565 1 1647 1648
1566 1 1648 1649
1567 1 1649 1650
1568 1 1650 1651
1569 1 1651 1652
1570 1 1652 1653
1571 1 1653 1654
1572 1 1654 1655
1573 1 1655 1656
1574 1 1656 1657
1575 1 1657 1658
1576 1 1658 1659
1577 1 1659 1660
1578 1 1661 1662
1579 1 1662 1663
1580 1 1663 1664
1581 1 1664 1665
1582 1 1665 1666
1583 1 1666 1667
1584 1 1667 1668
1585 1 1668 1669
1586 1 1669 1670
1587 1 1670 1671
1588 1 1671 1672
1589 1 1672 1673
1590 1 1673 1674
1591 1 1674 1675
1592 1 1675 1676
1593 1 1676 1677
1594 1 1677 1678
1595 1 1678 1679
1596 1 1679 1680
1597 1 1681 1682
1598 1 1682 1683
1599 1 1683 1684
1600 1 1684 1685
1601 1 1685 1686
1602 1 1686 1687
1603 1 1687 1688
1604 1 1688 1689
1605 1 1689 1690
1606 1 1690 1691
1607 1 1691 1692
1608 1 1692 1693
1609 1 1693 1694
1610 1 1694 1695
1611 1 1695 1696
1612 1 1696 1697
1613 1 1697 1698
1614 1 1698 1699
1615 1 1699 1700
1616 1 1701 1702
1617 1 1702 1703
1618 1 1703 1704
1619 1 1704 1705
1620 1 1705 1706
1621 1 1706 1707
1622 1 1707 1708
1623 1 1708 1709
1624 1 1709 1710
1625 1 1710 1711
1626 1 1711 1712
1627 1 1712 1713
1628 1 1713 1714
1629 1 1714 1715
1630 1 1715 1716
1631 1 1716 1717
1632 1 1717 1718
1633 1 1718 1719
1634 1 1719 1720
1635 1 1721 1722
1636 1 1722 1723
1637 1 1723 1724
1638 1 1724 1725
1639 1 1725 1726
1640 1 1726 1727
1641 1 1727 1728
1642 1 1728 1729
1643 1 1729 1730
1644 1 1730 1731
1645 1 1731 1732
1646 1 1732 1733
1647 1 1733 1734
1648 1 1734 1735
1649 1 1735 1736
1650 1 1736 1737
1651 1 1737 1738
1652 1 1738 1739
1653 1 1739 1740
1654 1 1741 1742
1655 1 1742 1743
1656 1 1743 1744
1657 1 1744 1745
1658 1 1745 1746
1659 1 1746 1747
1660 1 1747 1748
1661 1 1748 1749
1662 1 1749 1750
1663 1 1750 1751
1664 1 1751 1752
1665 1 1752 1753
1666 1 1753 1754
1667 1 1754 1755
1668 1 1755 1756
1669 1 1756 1757
1670 1 1757 1758
1671 1 1758 1759
1672 1 1759 1760
1673 1 1761 1762
1674 1 1762 1763
1675 1 1763 1764
1676 1 1764 1765
1677 1 1765 1766
1678 1 1766 1767
1679 1 1767 1768
1680 1 1768 1769
1681 1 1769 1770
1682 1 1770 1771
1683 1 1771 1772
1684 1 1772 1773
1685 1 1773 1774
1686 1 1774 1775
1687 1 1775 1776
1688 1 1776 1777
1689 1 1777 1778
1690 1 1778 1779
1691 1 1779 1780
1692 1 1781 1782
1693 1 1782 1783
1694 1 1783 1784
1695 1 1784 1785
1696 1 1785 1786
1697 1 1786 1787
1698 1 1787 1788
1699 1 1788 1789
1700 1 1789 1790
1701 1 1790 1791
1702 1 1791 1792
1703 1 1792 1793
1704 1 1793 1794
1705 1 1794 1795
1706 1 1795 1796
1707 1 1796 1797
1708 1 1797 1798
1709 1 1798 1799
1710 1 1799 1800
1711 1 1801 1802
1712 1 1802 1803
1713 1 1803 1804
1714 1 1804 1805
1715 1 1805 1806
1716 1 1806 1807
1717 1 1807 1808
1718 1 1808 1809
1719 1 1809 1810
1720 1 1810 1811
1721 1 1811 1812
1722 1 1812 1813
1723 1 1813 1814
1724 1 1814 1815
1725 1 1815 1816
1726 1 1816 1817
1727 1 1817 1818
1728 1 1818 1819
1729 1 1819 1820
1730 1 1821 1822
1731 1 1822 1823
1732 1 1823 1824
1733 1 1824 1825
1734 1 1825 1826
1735 1 1826 1827
1736 1 1827 1828
1737 1 1828 1829
1738 1 1829 1830
1739 1 1830 1831
1740 1 1831 1832
1741 1 1832 1833
1742 1 1833 1834
1743 1 1834 1835
1744 1 1835 1836
1745 1 1836 1837
1746 1 1837 1838
1747 1 1838 1839
1748 1 1839 1840
1749 1 1841 1842
1750 1 1842 1843
1751 1 1843 1844
1752 1 1844 1845
1753 1 1845 1846
1754 1 1846 1847
1755 1 1847 1848
1756 1 1848 1849
1757 1 1849 1850
1758 1 1850 1851
1759 1 1851 1852
1760 1 1852 1853
1761 1 1853 1854
1762 1 1854 1855
1763 1 1855 1856
1764 1 1856 1857
1765 1 1857 1858
1766 1 1858 1859
1767 1 1859 1860
1768 1 1861 1862
1769 1 1862 1863
1770 1 1863 1864
1771 1 1864 1865
1772 1 1865 1866
1773 1 1866 1867
1774 1 1867 1868
1775 1 1868 1869
1776 1 1869 1870
1777 1 1870 1871
1778 1 1871 1872
1779 1 1872 1873
1780 1 1873 1874
1781 1 1874 1875
1782 1 1875 1876
1783 1 1876 1877
1784 1 1877 1878
1785 1 1878 1879
1786 1 1879 1880
1787 1 1881 1882
1788 1 1882 1883
1789 1 1883 1884
1790 1 1884 1885
1791 1 1885 1886
1792 1 1886 1887
1793 1 1887 1888
1794 1 1888 1889
1795 1 1889 1890
1796 1 1890 1891
1797 1 1891 1892
1798 1 1892 1893
1799 1 1893 1894
1800 1 1894 1895
1801 1 1895 1896
1802 1 1896 1897
1803 1 1897 1898
1804 1 1898 1899
1805 1 1899 1900
1806 1 1901 1902
1807 1 1902 1903
1808 1 1903 1904
1809 1 1904 1905
1810 1 1905 1906
1811 1 1906 1907
1812 1 1907 1908
1813 1 1908 1909
1814 1 1909 1910
1815 1 1910 1911
1816 1 1911 1912
1817 1 1912 1913
1818 1 1913 1914
1819 1 1914 1915
1820 1 1915 1916
1821 1 1916 1917
1822 1 1917 1918
1823 1 1918 1919
1824 1 1919 1920
1825 1 1921 1922
1826 1 1922 1923
1827 1 1923 1924
1828 1 1924 1925
1829 1 1925 1926
1830 1 1926 1927
1831 1 1927 1928
1832 1 1928 1929
1833 1 1929 1930
1834 1 1930 1931
1835 1 1931 1932
1836 1 1932 1933
1837 1 1933 1934
1838 1 1934 1935
1839 1 1935 1936
1840 1 1936 1937
1841 1 1937 1938
1842 1 1938 1939
1843 1 1939 1940
1844 1 1941 1942
1845 1 1942 1943
1846 1 1943 1944
1847 1 1944 1945
1848 1 1945 1946
1849 1 1946 1947
1850 1 1947 1948
1851 1 1948 1949
1852 1 1949 1950
1853 1 1950 1951
1854 1 1951 1952
1855 1 1952 1953
1856 1 1953 1954
1857 1 1954 1955
1858 1 1955 1956
1859 1 1956 1957
1860 1 1957 1958
1861 1 1958 1959
1862 1 1959 1960
1863 1 1961 1962
1864 1 1962 1963
1865 1 1963 1964
1866 1 1964 1965
1867 1 1965 1966
1868 1 1966 1967
1869 1 1967 1968
1870 1 1968 1969
1871 1 1969 1970
1872 1 1970 1971
1873 1 1971 1972
1874 1 1972 1973
1875 1 1973 1974
1876 1 1974 1975
1877 1 1975 1976
1878 1 1976 1977
1879 1 1977 1978
1880 1 1978 1979
1881 1 1979 1980
1882 1 1981 1982
1883 1 1982 1983
1884 1 1983 1984
1885 1 1984 1985
1886 1 1985 1986
1887 1 1986 1987
1888 1 1987 1988
1889 1 1988 1989
1890 1 1989 1990
1891 1 1990 1991
1892 1 1991 1992
1893 1 1992 1993
1894 1 1993 1994
1895 1 1994 1995
1896 1 1995 1996
1897 1 1996 1997
1898 1 1997 1998
1899 1 1998 1999
1900 1 1999 2000
1901 1 2001 2002
1902 1 2002 2003
1903 1 2003 2004
1904 1 2004 2005
1905 1 2005 2006
1906 1 2006 2007
1907 1 2007 2008
1908 1 2008 2009
1909 1 2009 2010
1910 1 2010 2011
1911 1 2011 2012
1912 1 2012 2013
1913 1 2013 2014
1914 1 2014 2015
1915 1 2015 2016
1916 1 2016 2017
1917 1 2017 2018
1918 1 2018 2019
1919 1 2019 2020
1920 1 2021 2022
1921 1 2022 2023
1922 1 2023 2024
1923 1 2024 2025
1924 1 2025 2026
1925 1 2026 2027
1926 1 2027 2028
1927 1 2028 2029
1928 1 2029 2030
1929 1 2030 2031
1930 1 2031 2032
1931 1 2032 2033
1932 1 2033 2034
1933 1 2034 2035
1934 1 2035 2036
1935 1 2036 2037
1936 1 2037 2038
1937 1 2038 2039
1938 1 2039 2040
1939 1 2041 2042
1940 1 2042 2043
1941 1 2043 2044
1942 1 2044 2045
1943 1 2045 2046
1944 1 2046 2047
1945 1 2047 2048
1946 1 2048 2049
1947 1 2049 2050
1948 1 2050 2051
1949 1 2051 2052
1950 1 2052 2053
1951 1 2053 2054
1952 1 2054 2055
1953 1 2055 2056
1954 1 2056 2057
1955 1 2057 2058
1956 1 2058 2059
1957 1 2059 2060
1958 1 2061 2062
1959 1 2062 2063
1960 1 2063 2064
1961 1 2064 2065
1962 1 2065 2066
1963 1 2066 2067
1964 1 2067 2068
1965 1 2068 2069
1966 1 2069 2070
1967 1 2070 2071
1968 1 2071 2072
1969 1 2072 2073
1970 1 2073 2074
1971 1 2074 2075
1972 1 2075 2076
1973 1 2076 2077
1974 1 2077 2078
1975 1 2078 2079
1976 1 2079 2080
1977 1 2081 2082
1978 1 2082 2083
1979 1 2083 2084
1980 1 2084 2085
1981 1 2085 2086
1982 1 2086 2087
1983 1 2087 2088
1984 1 2088 2089
1985 1 2089 2090
1986 1 2090 2091
1987 1 2091 2092
1988 1 2092 2093
1989 1 2093 2094
1990 1 2094 2095
1991 1 2095 2096
1992 1 2096 2097
1993 1 2097 2098
1994 1 2098 2099
1995 1 2099 2100
1996 1 2101 2102
1997 1 2102 2103
1998 1 2103 2104
1999 1 2104 2105
2000 1 2105 2106
2001 1 2106 2107
2002 1 2107 2108
2003 1 2108 2109
2004 1 2109 2110
2005 1 2110 2111
2006 1 2111 2112
2007 1 2112 2113
2008 1 2113 2114
2009 1 2114 2115
2010 1 2115 2116
2011 1 2116 2117
2012 1 2117 2118
2013 1 2118 2119
2014 1 2119 2120
2015 1 2121 2122
2016 1 2122 2123
2017 1 2123 2124
2018 1 2124 2125
2019 1 2125 2126
2020 1 2126 2127
2021 1 2127 2128
2022 1 2128 2129
2023 1 2129 2130
2024 1 2130 2131
2025 1 2131 2132
2026 1 2132 2133
2027 1 2133 2134
2028 1 2134 2135
2029 1 2135 2136
2030 1 2136 2137
2031 1 2137 2138
2032 1 2138 2139
2033 1 2139 2140
2034 1 2141 2142
2035 1 2142 2143
2036 1 2143 2144
2037 1 2144 2145
2038 1 2145 2146
2039 1 2146 2147
2040 1 2147 2148
2041 1 2148 2149
2042 1 2149 2150
2043 1 2150 2151
2044 1 2151 2152
2045 1 2152 2153
2046 1 2153 2154
2047 1 2154 2155
2048 1 2155 2156
2049 1 2156 2157
2050 1 2157 2158
2051 1 2158 2159
2052 1 2159 2160
2053 1 2161 2162
2054 1 2162 2163
2055 1 2163 2164
2056 1 2164 2165
2057 1 2165 2166
2058 1 2166 2167
2059 1 2167 2168
2060 1 2168 2169
2061 1 2169 2170
2062 1 2170 2171
2063 1 2171 2172
2064 1 2172 2173
2065 1 2173 2174
2066 1 2174 2175
2067 1 2175 2176
2068 1 2176 2177
2069 1 2177 2178
2070 1 2178 2179
2071 1 2179 2180
2072 1 2181 2182
2073 1 2182 2183
2074 1 2183 2184
2075 1 2184 2185
2076 1 2185 2186
2077 1 2186 2187
2078 1 2187 2188
2079 1 2188 2189
2080 1 2189 2190
2081 1 2190 2191
2082 1 2191 2192
2083 1 2192 2193
2084 1 2193 2194
2085 1 2194 2195
2086 1 2195 2196
2087 1 2196 2197
2088 1 2197 2198
2089 1 2198 2199
2090 1 2199 2200
2091 1 2201 2202
2092 1 2202 2203
2093 1 2203 2204
2094 1 2204 2205
2095 1 2205 2206
2096 1 2206 2207
2097 1 2207 2208
2098 1 2208 2209
2099 1 2209 2210
2100 1 2210 2211
2101 1 2211 2212
2102 1 2212 2213
2103 1 2213 2214
2104 1 2214 2215
2105 1 2215 2216
2106 1 2216 2217
2107 1 2217 2218
2108 1 2218 2219
2109 1 2219 2220
2110 1 2221 2222
2111 1 2222 2223
2112 1 2223 2224
2113 1 2224 2225
2114 1 2225 2226
2115 1 2226 2227
2116 1 2227 2228
2117 1 2228 2229
2118 1 2229 2230
2119 1 2230 2231
2120 1 2231 2232
2121 1 2232 2233
2122 1 2233 2234
2123 1 2234 2235
2124 1 2235 2236
2125 1 2236 2237
2126 1 2237 2238
2127 1 2238 2239
2128 1 2239 2240
2129 1 2241 2242
2130 1 2242 2243
2131 1 2243 2244
2132 1 2244 2245
2133 1 2245 2246
2134 1 2246 2247
2135 1 2247 2248
2136 1 2248 2249
2137 1 2249 2250
2138 1 2250 2251
2139 1 2251 2252
2140 1 2252 2253
2141 1 2253 2254
2142 1 2254 2255
2143 1 2255 2256
2144 1 2256 2257
2145 1 2257 2258
2146 1 2258 2259
2147 1 2259 2260
2148 1 2261 2262
2149 1 2262 2263
2150 1 2263 2264
2151 1 2264 2265
2152 1 2265 2266
2153 1 2266 2267
2154 1 2267 2268
2155 1 2268 2269
2156 1 2269 2270
2157 1 2270 2271
2158 1 2271 2272
2159 1 2272 2273
2160 1 2273 2274
2161 1 2274 2275
2162 1 2275 2276
2163 1 2276 2277
2164 1 2277 2278
2165 1 2278 2279
2166 1 2279 2280
2167 1 2281 2282
2168 1 2282 2283
2169 1 2283 2284
2170 1 2284 2285
2171 1 2285 2286
2172 1 2286 2287
2173 1 2287 2288
2174 1 2288 2289
2175 1 2289 2290
2176 1 2290 2291
2177 1 2291 2292
2178 1 2292 2293
2179 1 2293 2294
2180 1 2294 2295
2181 1 2295 2296
2182 1 2296 2297
2183 1 2297 2298
2184 1 2298 2299
2185 1 2299 2300
2186 1 2301 2302
2187 1 2302 2303
2188 1 2303 2304
2189 1 2304 2305
2190 1 2305 2306
2191 1 2306 2307
2192 1 2307 2308
2193 1 2308 2309
2194 1 2309 2310
2195 1 2310 2311
2196 1 2311 2312
2197 1 2312 2313
2198 1 2313 2314
2199 1 2314 2315
2200 1 2315 2316
2201 1 2316 2317
2202 1 2317 2318
2203 1 2318 2319
2204 1 2319 2320
2205 1 2321 2322
2206 1 2322 2323
2207 1 2323 2324
2208 1 2324 2325
2209 1 2325 2326
2210 1 2326 2327
2211 1 2327 2328
2212 1 2328 2329
2213 1 2329 2330
2214 1 2330 2331
2215 1 2331 2332
2216 1 2332 2333
2217 1 2333 2334
2218 1 2334 2335
2219 1 2335 2336
2220 1 2336 2337
2221 1 2337 2338
2222 1 2338 2339
2223 1 2339 2340
2224 1 2341 2342
2225 1 2342 2343
2226 1 2343 2344
2227 1 2344 2345
2228 1 2345 2346
2229 1 2346 2347
2230 1 2347 2348
2231 1 2348 2349
2232 1 2349 2350
2233 1 2350 2351
2234 1 2351 2352
2235 1 2352 2353
2236 1 2353 2354
2237 1 2354 2355
2238 1 2355 2356
2239 1 2356 2357
2240 1 2357 2358
2241 1 2358 2359
2242 1 2359 2360
2243 1 2361 2362
2244 1 2362 2363
2245 1 2363 2364
2246 1 2364 2365
2247 1 2365 2366
2248 1 2366 2367
2249 1 2367 2368
2250 1 2368 2369
2251 1 2369 2370
2252 1 2370 2371
2253 1 2371 2372
2254 1 2372 2373
2255 1 2373 2374
2256 1 2374 2375
2257 1 2375 2376
2258 1 2376 2377
2259 1 2377 2378
2260 1 2378 2379
2261 1 2379 2380
2262 1 2381 2382
2263 1 2382 2383
2264 1 2383 2384
2265 1 2384 2385
2266 1 2385 2386
2267 1 2386 2387
2268 1 2387 2388
2269 1 2388 2389
2270 1 2389 2390
2271 1 2390 2391
2272 1 2391 2392
2273 1 2392 2393
2274 1 2393 2394
2275 1 2394 2395
2276 1 2395 2396
2277 1 2396 2397
2278 1 2397 2398
2279 1 2398 2399
2280 1 2399 2400
2281 1 2401 2402
2282 1 2402 2403
2283 1 2403 2404
2284 1 2404 2405
2285 1 2405 2406
2286 1 2406 2407
2287 1 2407 2408
2288 1 2408 2409
2289 1 2409 2410
2290 1 2410 2411
2291 1 2411 2412
2292 1 2412 2413
2293 1 2413 2414
2294 1 2414 2415
2295 1 2415 2416
2296 1 2416 2417
2297 1 2417 2418
2298 1 2418 2419
2299 1 2419 2420
2300 1 2421 2422
2301 1 2422 2423
2302 1 2423 2424
2303 1 2424 2425
2304 1 2425 2426
2305 1 2426 2427
2306 1 2427 2428
2307 1 2428 2429
2308 1 2429 2430
2309 1 2430 2431
2310 1 2431 2432
2311 1 2432 2433
2312 1 2433 2434
2313 1 2434 2435
2314 1 2435 2436
2315 1 2436 2437
2316 1 2437 2438
2317 1 2438 2439
2318 1 2439 2440
2319 1 2441 2442
2320 1 2442 2443
2321 1 2443 2444
2322 1 2444 2445
2323 1 2445 2446
2324 1 2446 2447
2325 1 2447 2448
2326 1 2448 2449
2327 1 2449 2450
2328 1 2450 2451
2329 1 2451 2452
2330 1 2452 2453
2331 1 2453 2454
2332 1 2454 2455
2333 1 2455 2456
2334 1 2456 2457
2335 1 2457 2458
2336 1 2458 2459
2337 1 2459 2460
2338 1 2461 2462
2339 1 2462 2463
2340 1 2463 2464
2341 1 2464 2465
2342 1 2465 2466
2343 1 2466 2467
2344 1 2467 2468
2345 1 2468 2469
2346 1 2469 2470
2347 1 2470 2471
2348 1 2471 2472
2349 1 2472 2473
2350 1 2473 2474
2351 1 2474 2475
2352 1 2475 2476
2353 1 2476 2477
2354 1 2477 2478
2355 1 2478 2479
2356 1 2479 2480
2357 1 2481 2482
2358 1 2482 2483
2359 1 2483 2484
2360 1 2484 2485
2361 1 2485 2486
2362 1 2486 2487
2363 1 2487 2488
2364 1 2488 2489
2365 1 2489 2490
2366 1 2490 2491
2367 1 2491 2492
2368 1 2492 2493
2369 1 2493 2494
2370 1 2494 2495
2371 1 2495 2496
2372 1 2496 2497
2373 1 2497 2498
2374 1 2498 2499
2375 1 2499 2500
2376 1 2501 2502
2377 1 2502 2503
2378 1 2503 2504
2379 1 2504 2505
2380 1 2505 2506
2381 1 2506 2507
2382 1 2507 2508
2383 1 2508 2509
2384 1 2509 2510
2385 1 2510 2511
2386 1 2511 2512
2387 1 2512 2513
2388 1 2513 2514
2389 1 2514 2515
2390 1 2515 2516
2391 1 2516 2517
2392 1 2517 2518
2393 1 2518 2519
2394 1 2519 2520
2395 1 2521 2522
2396 1 2522 2523
2397 1 2523 2524
2398 1 2524 2525
2399 1 2525 2526
2400 1 2526 2527
2401 1 2527 2528
2402 1 2528 2529
2403 1 2529 2530
2404 1 2530 2531
2405 1 2531 2532
2406 1 2532 2533
2407 1 2533 2534
2408 1 2534 2535
2409 1 2535 2536
2410 1 2536 2537
2411 1 2537 2538
2412 1 2538 2539
2413 1 2539 2540
2414 1 2541 2542
2415 1 2542 2543
2416 1 2543 2544
2417 1 2544 2545
2418 1 2545 2546
2419 1 2546 2547
2420 1 2547 2548
2421 1 2548 2549
2422 1 2549 2550
2423 1 2550 2551
2424 1 2551 2552
2425 1 2552 2553
2426 1 2553 2554
2427 1 2554 2555
2428 1 2555 2556
2429 1 2556 2557
2430 1 2557 2558
2431 1 2558 2559
2432 1 2559 2560
2433 1 2561 2562
2434 1 2562 2563
2435 1 2563 2564
2436 1 2564 2565
2437 1 2565 2566
2438 1 2566 2567
2439 1 2567 2568
2440 1 2568 2569
2441 1 2569 2570
2442 1 2570 2571
2443 1 2571 2572
2444 1 2572 2573
2445 1 2573 2574
2446 1 2574 2575
2447 1 2575 2576
2448 1 2576 2577
2449 1 2577 2578
2450 1 2578 2579
2451 1 2579 2580
2452 1 2581 2582
2453 1 2582 2583
2454 1 2583 2584
2455 1 2584 2585
2456 1 2585 2586
2457 1 2586 2587
2458 1 2587 2588
2459 1 2588 2589
2460 1 2589 2590
2461 1 2590 2591
2462 1 2591 2592
2463 1 2592 2593
2464 1 2593 2594
2465 1 2594 2595
2466 1 2595 2596
2467 1 2596 2597
2468 1 2597 2598
2469 1 2598 2599
2470 1 2599 2600
2471 1 2601 2602
2472 1 2602 2603
2473 1 2603 2604
2474 1 2604 2605
2475 1 2605 2606
2476 1 2606 2607
2477 1 2607 2608
2478 1 2608 2609
2479 1 2609 2610
2480 1 2610 2611
2481 1 2611 2612
2482 1 2612 2613
2483 1 2613 2614
2484 1 2614 2615
2485 1 2615 2616
2486 1 2616 2617
2487 1 2617 2618
2488 1 2618 2619
2489 1 2619 2620
2490 1 2621 2622
2491 1 2622 2623
2492 1 2623 2624
2493 1 2624 2625
2494 1 2625 2626
2495 1 2626 2627
2496 1 2627 2628
2497 1 2628 2629
2498 1 2629 2630
2499 1 2630 2631
2500 1 2631 2632
2501 1 2632 2633
2502 1 2633 2634
2503 1 2634 2635
2504 1 2635 2636
2505 1 2636 2637
2506 1 2637 2638
2507 1 2638 2639
2508 1 2639 2640
2509 1 2641 2642
2510 1 2642 2643
2511 1 2643 2644
2512 1 2644 2645
2513 1 2645 2646
2514 1 2646 2647
2515 1 2647 2648
2516 1 2648 2649
2517 1 2649 2650
2518 1 2650 2651
2519 1 2651 2652
2520 1 2652 2653
2521 1 2653 2654
2522 1 2654 2655
2523 1 2655 2656
2524 1 2656 2657
2525 1 2657 2658
2526 1 2658 2659
2527 1 2659 2660
2528 1 2661 2662
2529 1 2662 2663
2530 1 2663 2664
2531 1 2664 2665
2532 1 2665 2666
2533 1 2666 2667
2534 1 2667 2668
2535 1 2668 2669
2536 1 2669 2670
2537 1 2670 2671
2538 1 2671 2672
2539 1 2672 2673
2540 1 2673 2674
2541 1 2674 2675
2542 1 2675 2676
2543 1 2676 2677
2544 1 2677 2678
2545 1 2678 2679
2546 1 2679 2680
2547 1 2681 2682
2548 1 2682 2683
2549 1 2683 2684
2550 1 2684 2685
2551 1 2685 2686
2552 1 2686 2687
2553 1 2687 2688
2554 1 2688 2689
2555 1 2689 2690
2556 1 2690 2691
2557 1 2691 2692
2558 1 2692 2693
2559 1 2693 2694
2560 1 2694 2695
2561 1 2695 2696
2562 1 2696 2697
2563 1 2697 2698
2564 1 2698 2699
2565 1 2699 2700
2566 1 2701 2702
2567 1 2702 2703
2568 1 2703 2704
2569 1 2704 2705
2570 1 2705 2706
2571 1 2706 2707
2572 1 2707 2708
2573 1 2708 2709
2574 1 2709 2710
2575 1 2710 2711
2576 1 2711 2712
2577 1 2712 2713
2578 1 2713 2714
2579 1 2714 2715
2580 1 2715 2716
2581 1 2716 2717
2582 1 2717 2718
2583 1 2718 2719
2584 1 2719 2720
2585 1 2721 2722
2586 1 2722 2723
2587 1 2723 2724
2588 1 2724 2725
2589 1 2725 2726
2590 1 2726 2727
2591 1 2727 2728
2592 1 2728 2729
2593 1 2729 2730
2594 1 2730 2731
2595 1 2731 2732
2596 1 2732 2733
2597 1 2733 2734
2598 1 2734 2735
2599 1 2735 2736
2600 1 2736 2737
2601 1 2737 2738
2602 1 2738 2739
2603 1 2739 2740
2604 1 2741 2742
2605 1 2742 2743
2606 1 2743 2744
2607 1 2744 2745
2608 1 2745 2746
2609 1 2746 2747
2610 1 2747 2748
2611 1 2748 2749
2612 1 2749 2750
2613 1 2750 2751
2614 1 2751 2752
2615 1 2752 2753
2616 1 2753 2754
2617 1 2754 2755
2618 1 2755 2756
2619 1 2756 2757
2620 1 2757 2758
2621 1 2758 2759
2622 1 2759 2760
2623 1 2761 2762
2624 1 2762 2763
2625 1 2763 2764
2626 1 2764 2765
2627 1 2765 2766
2628 1 2766 2767
2629 1 2767 2768
2630 1 2768 2769
2631 1 2769 2770
2632 1 2770 2771
2633 1 2771 2772
2634 1 2772 2773
2635 1 2773 2774
2636 1 2774 2775
2637 1 2775 2776
2638 1 2776 2777
2639 1 2777 2778
2640 1 2778 2779
2641 1 2779 2780
2642 1 2781 2782
2643 1 2782 2783
2644 1 2783 2784
2645 1 2784 2785
2646 1 2785 2786
2647 1 2786 2787
2648 1 2787 2788
2649 1 2788 2789
2650 1 2789 2790
2651 1 2790 2791
2652 1 2791 2792
2653 1 2792 2793
2654 1 2793 2794
2655 1 2794 2795
2656 1 2795 2796
2657 1 2796 2797
2658 1 2797 2798
2659 1 2798 2799
2660 1 2799 2800
2661 1 2801 2802
2662 1 2802 2803
2663 1 2803 2804
2664 1 2804 2805
2665 1 2805 2806
2666 1 2806 2807
2667 1 2807 2808
2668 1 2808 2809
2669 1 2809 2810
2670 1 2810 2811
2671 1 2811 2812
2672 1 2812 2813
2673 1 2813 2814
2674 1 2814 2815
2675 1 2815 2816
2676 1 2816 2817
2677 1 2817 2818
2678 1 2818 2819
2679 1 2819 2820
2680 1 2821 2822
2681 1 2822 2823
2682 1 2823 2824
2683 1 2824 2825
2684 1 2825 2826
2685 1 2826 2827
2686 1 2827 2828
2687 1 2828 2829
2688 1 2829 2830
2689 1 2830 2831
2690 1 2831 2832
2691 1 2832 2833
2692 1 2833 2834
2693 1 2834 2835
2694 1 2835 2836
2695 1 2836 2837
2696 1 2837 2838
2697 1 2838 2839
2698 1 2839 2840
2699 1 2841 2842
2700 1 2842 2843
2701 1 2843 2844
2702 1 2844 2845
2703 1 2845 2846
2704 1 2846 2847
2705 1 2847 2848
2706 1 2848 2849
2707 1 2849 2850
2708 1 2850 2851
2709 1 2851 2852
2710 1 2852 2853
2711 1 2853 2854
2712 1 2854 2855
2713 1 2855 2856
2714 1 2856 2857
2715 1 2857 2858
2716 1 2858 2859
2717 1 2859 2860
2718 1 2861 2862
2719 1 2862 2863
2720 1 2863 2864
2721 1 2864 2865
2722 1 2865 2866
2723 1 2866 2867
2724 1 2867 2868
2725 1 2868 2869
2726 1 2869 2870
2727 1 2870 2871
2728 1 2871 2872
2729 1 2872 2873
2730 1 2873 2874
2731 1 2874 2875
2732 1 2875 2876
2733 1 2876 2877
2734 1 2877 2878
2735 1 2878 2879
2736 1 2879 2880
2737 1 2881 2882
2738 1 2882 2883
2739 1 2883 2884
2740 1 2884 2885
2741 1 2885 2886
2742 1 2886 2887
2743 1 2887 2888
2744 1 2888 2889
2745 1 2889 2890
2746 1 2890 2891
2747 1 2891 2892
2748 1 2892 2893
2749 1 2893 2894
2750 1 2894 2895
2751 1 2895 2896
2752 1 2896 2897
2753 1 2897 2898
2754 1 2898 2899
2755 1 2899 2900
2756 1 2901 2902
2757 1 2902 2903
2758 1 2903 2904
2759 1 2904 2905
2760 1 2905 2906
2761 1 2906 2907
2762 1 2907 2908
2763 1 2908 2909
2764 1 2909 2910
2765 1 2910 2911
2766 1 2911 2912
2767 1 2912 2913
2768 1 2913 2914
2769 1 2914 2915
2770 1 2915 2916
2771 1 2916 2917
2772 1 2917 2918
2773 1 2918 2919
2774 1 2919 2920
2775 1 2921 2922
2776 1 2922 2923
2777 1 2923 2924
2778 1 2924 2925
2779 1 2925 2926
2780 1 2926 2927
2781 1 2927 2928
2782 1 2928 2929
2783 1 2929 2930
2784 1 2930 2931
2785 1 2931 2932
2786 1 2932 2933
2787 1 2933 2934
2788 1 2934 2935
2789 1 2935 2936
2790 1 2936 2937
2791 1 2937 2938
2792 1 2938 2939
2793 1 2939 2940
2794 1 2941 2942
2795 1 2942 2943
2796 1 2943 2944
2797 1 2944 2945
2798 1 2945 2946
2799 1 2946 2947
2800 1 2947 2948
2801 1 2948 2949
2802 1 2949 2950
2803 1 2950 2951
2804 1 2951 2952
2805 1 2952 2953
2806 1 2953 2954
2807 1 2954 2955
2808 1 2955 2956
2809 1 2956 2957
2810 1 2957 2958
2811 1 2958 2959
2812 1 2959 2960
2813 1 2961 2962
2814 1 2962 2963
2815 1 2963 2964
2816 1 2964 2965
2817 1 2965 2966
2818 1 2966 2967
2819 1 2967 2968
2820 1 2968 2969
2821 1 2969 2970
2822 1 2970 2971
2823 1 2971 2972
2824 1 2972 2973
2825 1 2973 2974
2826 1 2974 2975
2827 1 2975 2976
2828 1 2976 2977
2829 1 2977 2978
2830 1 2978 2979
2831 1 2979 2980
2832 1 2981 2982
2833 1 2982 2983
2834 1 2983 2984
2835 1 2984 2985
2836 1 2985 2986
2837 1 2986 2987
2838 1 2987 2988
2839 1 2988 2989
2840 1 2989 2990
2841 1 2990 2991
2842 1 2991 2992
2843 1 2992 2993
2844 1 2993 2994
2845 1 2994 2995
2846 1 2995 2996
2847 1 2996 2997
2848 1 2997 2998
2849 1 2998 2999
2850 1 2999 3000
2851 1 3001 3002
2852 1 3002 3003
2853 1 3003 3004
2854 1 3004 3005
2855 1 3005 3006
2856 1 3006 3007
2857 1 3007 3008
2858 1 3008 3009
2859 1 3009 3010
2860 1 3010 3011
2861 1 3011 3012
2862 1 3012 3013
2863 1 3013 3014
2864 1 3014 3015
2865 1 3015 3016
2866 1 3016 3017
2867 1 3017 3018
2868 1 3018 3019
2869 1 3019 3020
2870 1 3021 3022
2871 1 3022 3023
2872 1 3023 3024
2873 1 3024 3025
2874 1 3025 3026
2875 1 3026 3027
2876 1 3027 3028
2877 1 3028 3029
2878 1 3029 3030
2879 1 3030 3031
2880 1 3031 3032
2881 1 3032 3033
2882 1 3033 3034
2883 1 3034 3035
2884 1 3035 3036
2885 1 3036 3037
2886 1 3037 3038
2887 1 3038 3039
2888 1 3039 3040
2889 1 3041 3042
2890 1 3042 3043
2891 1 3043 3044
2892 1 3044 3045
2893 1 3045 3046
2894 1 3046 3047
2895 1 3047 3048
2896 1 3048 3049
2897 1 3049 3050
2898 1 3050 3051
2899 1 3051 3052
2900 1 3052 3053
2901 1 3053 3054
2902 1 3054 3055
2903 1 3055 3056
2904 1 3056 3057
2905 1 3057 3058
2906 1 3058 3059
2907 1 3059 3060
2908 1 3061 3062
2909 1 3062 3063
2910 1 3063 3064
2911 1 3064 3065
2912 1 3065 3066
2913 1 3066 3067
2914 1 3067 3068
2915 1 3068 3069
2916 1 3069 3070
2917 1 3070 3071
2918 1 3071 3072
2919 1 3072 3073
2920 1 3073 3074
2921 1 3074 3075
2922 1 3075 3076
2923 1 3076 3077
2924 1 3077 3078
2925 1 3078 3079
2926 1 3079 3080
2927 1 3081 3082
2928 1 3082 3083
2929 1 3083 3084
2930 1 3084 3085
2931 1 3085 3086
2932 1 3086 3087
2933 1 3087 3088
2934 1 3088 3089
2935 1 3089 3090
2936 1 3090 3091
2937 1 3091 3092
2938 1 3092 3093
2939 1 3093 3094
2940 1 3094 3095
2941 1 3095 3096
2942 1 3096 3097
2943 1 3097 3098
2944 1 3098 3099
2945 1 3099 3100
2946 1 3101 3102
2947 1 3102 3103
2948 1 3103 3104
2949 1 3104 3105
2950 1 3105 3106
2951 1 3106 3107
2952 1 3107 3108
2953 1 3108 3109
2954 1 3109 3110
2955 1 3110 3111
2956 1 3111 3112
2957 1 3112 3113
2958 1 3113 3114
2959 1 3114 3115
2960 1 3115 3116
2961 1 3116 3117
2962 1 3117 3118
2963 1 3118 3119
2964 1 3119 3120
2965 1 3121 3122
2966 1 3122 3123
2967 1 3123 3124
2968 1 3124 3125
2969 1 3125 3126
2970 1 3126 3127
2971 1 3127 3128
2972 1 3128 3129
2973 1 3129 3130
2974 1 3130 3131
2975 1 3131 3132
2976 1 3132 3133
2977 1 3133 3134
2978 1 3134 3135
2979 1 3135 3136
2980 1 3136 3137
2981 1 3137 3138
2982 1 3138 3139
2983 1 3139 3140
2984 1 3141 3142
2985 1 3142 3143
2986 1 3143 3144
2987 1 3144 3145
2988 1 3145 3146
2989 1 3146 3147
2990 1 3147 3148
2991 1 3148 3149
2992 1 3149 3150
2993 1 3150 3151
2994 1 3151 3152
2995 1 3152 3153
2996 1 3153 3154
2997 1 3154 3155
2998 1 3155 3156
2999 1 3156 3157
3000 1 3157 3158
3001 1 3158 3159
3002 1 3159 3160
3003 1 3161 3162
3004 1 3162 3163
3005 1 3163 3164
3006 1 3164 3165
3007 1 3165 3166
3008 1 3166 3167
3009 1 3167 3168
3010 1 3168 3169
3011 1 3169 3170
3012 1 3170 3171
3013 1 3171 3172
3014 1 3172 3173
3015 1 3173 3174
3016 1 3174 3175
3017 1 3175 3176
3018 1 3176 3177
3019 1 3177 3178
3020 1 3178 3179
3021 1 3179 3180
3022 1 3181 3182
3023 1 3182 3183
3024 1 3183 3184
3025 1 3184 3185
3026 1 3185 3186
3027 1 3186 3187
3028 1 3187 3188
3029 1 3188 3189
3030 1 3189 3190
3031 1 3190 3191
3032 1 3191 3192
3033 1 3192 3193
3034 1 3193 3194
3035 1 3194 3195
3036 1 3195 3196
3037 1 3196 3197
3038 1 3197 3198
3039 1 3198 3199
3040 1 3199 3200
3041 1 3201 3202
3042 1 3202 3203
3043 1 3203 3204
3044 1 3204 3205
3045 1 3205 3206
3046 1 3206 3207
3047 1 3207 3208
3048 1 3208 3209
3049 1 3209 3210
3050 1 3210 3211
3051 1 3211 3212
3052 1 3212 3213
3053 1 3213 3214
3054 1 3214 3215
3055 1 3215 3216
3056 1 3216 3217
3057 1 3217 3218
3058 1 3218 3219
3059 1 3219 3220
3060 1 3221 3222
3061 1 3222 3223
3062 1 3223 3224
3063 1 3224 3225
3064 1 3225 3226
3065 1 3226 3227
3066 1 3227 3228
3067 1 3228 3229
3068 1 3229 3230
3069 1 3230 3231
3070 1 3231 3232
3071 1 3232 3233
3072 1 3233 3234
3073 1 3234 3235
3074 1 3235 3236
3075 1 3236 3237
3076 1 3237 3238
3077 1 3238 3239
3078 1 3239 3240
3079 1 3241 3242
3080 1 3242 3243
3081 1 3243 3244
3082 1 3244 3245
3083 1 3245 3246
3084 1 3246 3247
3085 1 3247 3248
3086 1 3248 3249
3087 1 3249 3250
3088 1 3250 3251
3089 1 3251 3252
3090 1 3252 3253
3091 1 3253 3254
3092 1 3254 3255
3093 1 3255 3256
3094 1 3256 3257
3095 1 3257 3258
3096 1 3258 3259
3097 1 3259 3260
3098 1 3261 3262
3099 1 3262 3263
3100 1 3263 3264
3101 1 3264 3265
3102 1 3265 3266
3103 1 3266 3267
3104 1 3267 3268
3105 1 3268 3269
3106 1 3269 3270
3107 1 3270 3271
3108 1 3271 3272
3109 1 3272 3273
3110 1 3273 3274
3111 1 3274 3275
3112 1 3275 3276
3113 1 3276 3277
3114 1 3277 3278
3115 1 3278 3279
3116 1 3279 3280
3117 1 3281 3282
3118 1 3282 3283
3119 1 3283 3284
3120 1 3284 3285
3121 1 3285 3286
3122 1 3286 3287
3123 1 3287 3288
3124 1 3288 3289
3125 1 3289 3290
3126 1 3290 3291
3127 1 3291 3292
3128 1 3292 3293
3129 1 3293 3294
3130 1 3294 3295
3131 1 3295 3296
3132 1 3296 3297
3133 1 3297 3298
3134 1 3298 3299
3135 1 3299 3300
3136 1 3301 3302
3137 1 3302 3303
3138 1 3303 3304
3139 1 3304 3305
3140 1 3305 3306
3141 1 3306 3307
3142 1 3307 3308
3143 1 3308 3309
3144 1 3309 3310
3145 1 3310 3311
3146 1 3311 3312
3147 1 3312 3313
3148 1 3313 3314
3149 1 3314 3315
3150 1 3315 3316
3151 1 3316 3317
3152 1 3317 3318
3153 1 3318 3319
3154 1 3319 3320
3155 1 3321 3322
3156 1 3322 3323
3157 1 3323 3324
3158 1 3324 3325
3159 1 3325 3326
3160 1 3326 3327
3161 1 3327 3328
3162 1 3328 3329
3163 1 3329 3330
3164 1 3330 3331
3165 1 3331 3332
3166 1 3332 3333
3167 1 3333 3334
3168 1 3334 3335
3169 1 3335 3336
3170 1 3336 3337
3171 1 3337 3338
3172 1 3338 3339
3173 1 3339 3340
3174 1 3341 3342
3175 1 3342 3343
3176 1 3343 3344
3177 1 3344 3345
3178 1 3345 3346
3179 1 3346 3347
3180 1 3347 3348
3181 1 3348 3349
3182 1 3349 3350
3183 1 3350 3351
3184 1 3351 3352
3185 1 3352 3353
3186 1 3353 3354
3187 1 3354 3355
3188 1 3355 3356
3189 1 3356 3357
3190 1 3357 3358
3191 1 3358 3359
3192 1 3359 3360
3193 1 3361 3362
3194 1 3362 3363
3195 1 3363 3364
3196 1 3364 3365
3197 1 3365 3366
3198 1 3366 3367
3199 1 3367 3368
3200 1 3368 3369
3201 1 3369 3370
3202 1 3370 3371
3203 1 3371 3372
3204 1 3372 3373
3205 1 3373 3374
3206 1 3374 3375
3207 1 3375 3376
3208 1 3376 3377
3209 1 3377 3378
3210 1 3378 3379
3211 1 3379 3380
3212 1 3381 3382
3213 1 3382 3383
3214 1 3383 3384
3215 1 3384 3385
3216 1 3385 3386
3217 1 3386 3387
3218 1 3387 3388
3219 1 3388 3389
3220 1 3389 3390
3221 1 3390 3391
3222 1 3391 3392
3223 1 3392 3393
3224 1 3393 3394
3225 1 3394 3395
3226 1 3395 3396
3227 1 3396 3397
3228 1 3397 3398
3229 1 3398 3399
3230 1 3399 3400
3231 1 3401 3402
3232 1 3402 3403
3233 1 3403 3404
3234 1 3404 3405
3235 1 3405 3406
3236 1 3406 3407
3237 1 3407 3408
3238 1 3408 3409
3239 1 3409 3410
3240 1 3410 3411
3241 1 3411 3412
3242 1 3412 3413
3243 1 3413 3414
3244 1 3414 3415
3245 1 3415 3416
3246 1 3416 3417
3247 1 3417 3418
3248 1 3418 3419
3249 1 3419 3420
3250 1 3421 3422
3251 1 3422 3423
3252 1 3423 3424
3253 1 3424 3425
3254 1 3425 3426
3255 1 3426 3427
3256 1 3427 3428
3257 1 3428 3429
3258 1 3429 3430
3259 1 3430 3431
3260 1 3431 3432
3261 1 3432 3433
3262 1 3433 3434
3263 1 3434 3435
3264 1 3435 3436
3265 1 3436 3437
3266 1 3437 3438
3267 1 3438 3439
3268 1 3439 3440
3269 1 3441 3442
3270 1 3442 3443
3271 1 3443 3444
3272 1 3444 3445
3273 1 3445 3446
3274 1 3446 3447
3275 1 3447 3448
3276 1 3448 3449
3277 1 3449 3450
3278 1 3450 3451
3279 1 3451 3452
3280 1 3452 3453
3281 1 3453 3454
3282 1 3454 3455
3283 1 3455 3456
3284 1 3456 3457
3285 1 3457 3458
3286 1 3458 3459
3287 1 3459 3460
3288 1 3461 3462
3289 1 3462 3463
3290 1 3463 3464
3291 1 3464 3465
3292 1 3465 3466
3293 1 3466 3467
3294 1 3467 3468
3295 1 3468 3469
3296 1 3469 3470
3297 1 3470 3471
3298 1 3471 3472
3299 1 3472 3473
3300 1 3473 3474
3301 1 3474 3475
3302 1 3475 3476
3303 1 3476 3477
3304 1 3477 3478
3305 1 3478 3479
3306 1 3479 3480
3307 1 3481 3482
3308 1 3482 3483
3309 1 3483 3484
3310 1 3484 3485
3311 1 3485 3486
3312 1 3486 3487
3313 1 3487 3488
3314 1 3488 3489
3315 1 3489 3490
3316 1 3490 3491
3317 1 3491 3492
3318 1 3492 3493
3319 1 3493 3494
3320 1 3494 3495
3321 1 3495 3496
3322 1 3496 3497
3323 1 3497 3498
3324 1 3498 3499
3325 1 3499 3500
3326 1 3501 3502
3327 1 3502 3503
3328 1 3503 3504
3329 1 3504 3505
3330 1 3505 3506
3331 1 3506 3507
3332 1 3507 3508
3333 1 3508 3509
3334 1 3509 3510
3335 1 3510 3511
3336 1 3511 3512
3337 1 3512 3513
3338 1 3513 3514
3339 1 3514 3515
3340 1 3515 3516
3341 1 3516 3517
3342 1 3517 3518
3343 1 3518 3519
3344 1 3519 3520
3345 1 3521 3522
3346 1 3522 3523
3347 1 3523 3524
3348 1 3524 3525
3349 1 3525 3526
3350 1 3526 3527
3351 1 3527 3528
3352 1 3528 3529
3353 1 3529 3530
3354 1 3530 3531
3355 1 3531 3532
3356 1 3532 3533
3357 1 3533 3534
3358 1 3534 3535
3359 1 3535 3536
3360 1 3536 3537
3361 1 3537 3538
3362 1 3538 3539
3363 1 3539 3540
3364 1 3541 3542
3365 1 3542 3543
3366 1 3543 3544
3367 1 3544 3545
3368 1 3545 3546
3369 1 3546 3547
3370 1 3547 3548
3371 1 3548 3549
3372 1 3549 3550
3373 1 3550 3551
3374 1 3551 3552
3375 1 3552 3553
3376 1 3553 3554
3377 1 3554 3555
3378 1 3555 3556
3379 1 3556 3557
3380 1 3557 3558
3381 1 3558 3559
3382 1 3559 3560
3383 1 3561 3562
3384 1 3562 3563
3385 1 3563 3564
3386 1 3564 3565
3387 1 3565 3566
3388 1 3566 3567
3389 1 3567 3568
3390 1 3568 3569
3391 1 3569 3570
3392 1 3570 3571
3393 1 3571 3572
3394 1 3572 3573
3395 1 3573 3574
3396 1 3574 3575
3397 1 3575 3576
3398 1 3576 3577
3399 1 3577 3578
3400 1 3578 3579
3401 1 3579 3580
3402 1 3581 3582
3403 1 3582 3583
3404 1 3583 3584
3405 1 3584 3585
3406 1 3585 3586
3407 1 3586 3587
3408 1 3587 3588
3409 1 3588 3589
3410 1 3589 3590
3411 1 3590 3591
3412 1 3591 3592
3413 1 3592 3593
3414 1 3593 3594
3415 1 3594 3595
3416 1 3595 3596
3417 1 3596 3597
3418 1 3597 3598
3419 1 3598 3599
3420 1 3599 3600
3421 1 3601 3602
3422 1 3602 3603
3423 1 3603 3604
3424 1 3604 3605
3425 1 3605 3606
3426 1 3606 3607
3427 1 3607 3608
3428 1 3608 3609
3429 1 3609 3610
3430 1 3610 3611
3431 1 3611 3612
3432 1 3612 3613
3433 1 3613 3614
3434 1 3614 3615
3435 1 3615 3616
3436 1 3616 3617
3437 1 3617 3618
3438 1 3618 3619
3439 1 3619 3620
3440 1 3621 3622
3441 1 3622 3623
3442 1 3623 3624
3443 1 3624 3625
3444 1 3625 3626
3445 1 3626 3627
3446 1 3627 3628
3447 1 3628 3629
3448 1 3629 3630
3449 1 3630 3631
3450 1 3631 3632
3451 1 3632 3633
3452 1 3633 3634
3453 1 3634 3635
3454 1 3635 3636
3455 1 3636 3637
3456 1 3637 3638
3457 1 3638 3639
3458 1 3639 3640
3459 1 3641 3642
3460 1 3642 3643
3461 1 3643 3644
3462 1 3644 3645
3463 1 3645 3646
3464 1 3646 3647
3465 1 3647 3648
3466 1 3648 3649
3467 1 3649 3650
3468 1 3650 3651
3469 1 3651 3652
3470 1 3652 3653
3471 1 3653 3654
3472 1 3654 3655
3473 1 3655 3656
3474 1 3656 3657
3475 1 3657 3658
3476 1 3658 3659
3477 1 3659 3660
3478 1 3661 3662
3479 1 3662 3663
3480 1 3663 3664
3481 1 3664 3665
3482 1 3665 3666
3483 1 3666 3667
3484 1 3667 3668
3485 1 3668 3669
3486 1 3669 3670
3487 1 3670 3671
3488 1 3671 3672
3489 1 3672 3673
3490 1 3673 3674
3491 1 3674 3675
3492 1 3675 3676
3493 1 3676 3677
3494 1 3677 3678
3495 1 3678 3679
3496 1 3679 3680
3497 1 3681 3682
3498 1 3682 3683
3499 1 3683 3684
3500 1 3684 3685
3501 1 3685 3686
3502 1 3686 3687
3503 1 3687 3688
3504 1 3688 3689
3505 1 3689 3690
3506 1 3690 3691
3507 1 3691 3692
3508 1 3692 3693
3509 1 3693 3694
3510 1 3694 3695
3511 1 3695 3696
3512 1 3696 3697
3513 1 3697 3698
3514 1 3698 3699
3515 1 3699 3700
3516 1 3701 3702
3517 1 3702 3703
3518 1 3703 3704
3519 1 3704 3705
3520 1 3705 3706
3521 1 3706 3707
3522 1 3707 3708
3523 1 3708 3709
3524 1 3709 3710
3525 1 3710 3711
3526 1 3711 3712
3527 1 3712 3713
3528 1 3713 3714
3529 1 3714 3715
3530 1 3715 3716
3531 1 3716 3717
3532 1 3717 3718
3533 1 3718 3719
3534 1 3719 3720
3535 1 3721 3722
3536 1 3722 3723
3537 1 3723 3724
3538 1 3724 3725
3539 1 3725 3726
3540 1 3726 3727
3541 1 3727 3728
3542 1 3728 3729
3543 1 3729 3730
3544 1 3730 3731
3545 1 3731 3732
3546 1 3732 3733
3547 1 3733 3734
3548 1 3734 3735
3549 1 3735 3736
3550 1 3736 3737
3551 1 3737 3738
3552 1 3738 3739
3553 1 3739 3740
3554 1 3741 3742
3555 1 3742 3743
3556 1 3743 3744
3557 1 3744 3745
3558 1 3745 3746
3559 1 3746 3747
3560 1 3747 3748
3561 1 3748 3749
3562 1 3749 3750
3563 1 3750 3751
3564 1 3751 3752
3565 1 3752 3753
3566 1 3753 3754
3567 1 3754 3755
3568 1 3755 3756
3569 1 3756 3757
3570 1 3757 3758
3571 1 3758 3759
3572 1 3759 3760
3573 1 3761 3762
3574 1 3762 3763
3575 1 3763 3764
3576 1 3764 3765
3577 1 3765 3766
3578 1 3766 3767
3579 1 3767 3768
3580 1 3768 3769
3581 1 3769 3770
3582 1 3770 3771
3583 1 3771 3772
3584 1 3772 3773
3585 1 3773 3774
3586 1 3774 3775
3587 1 3775 3776
3588 1 3776 3777
3589 1 3777 3778
3590 1 3778 3779
3591 1 3779 3780
3592 1 3781 3782
3593 1 3782 3783
3594 1 3783 3784
3595 1 3784 3785
3596 1 3785 3786
3597 1 3786 3787
3598 1 3787 3788
3599 1 3788 3789
3600 1 3789 3790
3601 1 3790 3791
3602 1 3791 3792
3603 1 3792 3793
3604 1 3793 3794
3605 1 3794 3795
3606 1 3795 3796
3607 1 3796 3797
3608 1 3797 3798
3609 1 3798 3799
3610 1 3799 3800
3611 1 3801 3802
3612 1 3802 3803
3613 1 3803 3804
3614 1 3804 3805
3615 1 3805 3806
3616 1 3806 3807
3617 1 3807 3808
3618 1 3808 3809
3619 1 3809 3810
3620 1 3810 3811
3621 1 3811 3812
3622 1 3812 3813
3623 1 3813 3814
3624 1 3814 3815
3625 1 3815 3816
3626 1 3816 3817
3627 1 3817 3818
3628 1 3818 3819
3629 1 3819 3820
3630 1 3821 3822
3631 1 3822 3823
3632 1 3823 3824
3633 1 3824 3825
3634 1 3825 3826
3635 1 3826 3827
3636 1 3827 3828
3637 1 3828 3829
3638 1 3829 3830
3639 1 3830 3831
3640 1 3831 3832
3641 1 3832 3833
3642 1 3833 3834
3643 1 3834 3835
3644 1 3835 3836
3645 1 3836 3837
3646 1 3837 3838
3647 1 3838 3839
3648 1 3839 3840
3649 1 3841 3842
3650 1 3842 3843
3651 1 3843 3844
3652 1 3844 3845
3653 1 3845 3846
3654 1 3846 3847
3655 1 3847 3848
3656 1 3848 3849
3657 1 3849 3850
3658 1 3850 3851
3659 1 3851 3852
3660 1 3852 3853
3661 1 3853 3854
3662 1 3854 3855
3663 1 3855 3856
3664 1 3856 3857
3665 1 3857 3858
3666 1 3858 3859
3667 1 3859 3860
3668 1 3861 3862
3669 1 3862 3863
3670 1 3863 3864
3671 1 3864 3865
3672 1 3865 3866
3673 1 3866 3867
3674 1 3867 3868
3675 1 3868 3869
3676 1 3869 3870
3677 1 3870 3871
3678 1 3871 3872
3679 1 3872 3873
3680 1 3873 3874
3681 1 3874 3875
3682 1 3875 3876
3683 1 3876 3877
3684 1 3877 3878
3685 1 3878 3879
3686 1 3879 3880
3687 1 3881 3882
3688 1 3882 3883
3689 1 3883 3884
3690 1 3884 3885
3691 1 3885 3886
3692 1 3886 3887
3693 1 3887 3888
3694 1 3888 3889
3695 1 3889 3890
3696 1 3890 3891
3697 1 3891 3892
3698 1 3892 3893
3699 1 3893 3894
3700 1 3894 3895
3701 1 3895 3896
3702 1 3896 3897
3703 1 3897 3898
3704 1 3898 3899
3705 1 3899 3900
3706 1 3901 3902
3707 1 3902 3903
3708 1 3903 3904
3709 1 3904 3905
3710 1 3905 3906
3711 1 3906 3907
3712 1 3907 3908
3713 1 3908 3909
3714 1 3909 3910
3715 1 3910 3911
3716 1 3911 3912
3717 1 3912 3913
3718 1 3913 3914
3719 1 3914 3915
3720 1 3915 3916
3721 1 3916 3917
3722 1 3917 3918
3723 1 3918 3919
3724 1 3919 3920
3725 1 3921 3922
3726 1 3922 3923
3727 1 3923 3924
3728 1 3924 3925
3729 1 3925 3926
3730 1 3926 3927
3731 1 3927 3928
3732 1 3928 3929
3733 1 3929 3930
3734 1 3930 3931
3735 1 3931 3932
3736 1 3932 3933
3737 1 3933 3934
3738 1 3934 3935
3739 1 3935 3936
3740 1 3936 3937
3741 1 3937 3938
3742 1 3938 3939
3743 1 3939 3940
3744 1 3941 3942
3745 1 3942 3943
3746 1 3943 3944
3747 1 3944 3945
3748 1 3945 3946
3749 1 3946 3947
3750 1 3947 3948
3751 1 3948 3949
3752 1 3949 3950
3753 1 3950 3951
3754 1 3951 3952
3755 1 3952 3953
3756 1 3953 3954
3757 1 3954 3955
3758 1 3955 3956
3759 1 3956 3957
3760 1 3957 3958
3761 1 3958 3959
3762 1 3959 3960
3763 1 3961 3962
3764 1 3962 3963
3765 1 3963 3964
3766 1 3964 3965
3767 1 3965 3966
3768 1 3966 3967
3769 1 3967 3968
3770 1 3968 3969
3771 1 3969 3970
3772 1 3970 3971
3773 1 3971 3972
3774 1 3972 3973
3775 1 3973 3974
3776 1 3974 3975
3777 1 3975 3976
3778 1 3976 3977
3779 1 3977 3978
3780 1 3978 3979
3781 1 3979 3980
3782 1 3981 3982
3783 1 3982 3983
3784 1 3983 3984
3785 1 3984 3985
3786 1 3985 3986
3787 1 3986 3987
3788 1 3987 3988
3789 1 3988 3989
3790 1 3989 3990
3791 1 3990 3991
3792 1 3991 3992
3793 1 3992 3993
3794 1 3993 3994
3795 1 3994 3995
3796 1 3995 3996
3797 1 3996 3997
3798 1 3997 3998
3799 1 3998 3999
3800 1 3999 4000
3801 1 4001 4002
3802 1 4002 4003
3803 1 4003 4004
3804 1 4004 4005
3805 1 4005 4006
3806 1 4006 4007
3807 1 4007 4008
3808 1 4008 4009
3809 1 4009 4010
3810 1 4010 4011
3811 1 4011 4012
3812 1 4012 4013
3813 1 4013 4014
3814 1 4014 4015
3815 1 4015 4016
3816 1 4016 4017
3817 1 4017 4018
3818 1 4018 4019
3819 1 4019 4020
3820 1 4021 4022
3821 1 4022 4023
3822 1 4023 4024
3823 1 4024 4025
3824 1 4025 4026
3825 1 4026 4027
3826 1 4027 4028
3827 1 4028 4029
3828 1 4029 4030
3829 1 4030 4031
3830 1 4031 4032
3831 1 4032 4033
3832 1 4033 4034
3833 1 4034 4035
3834 1 4035 4036
3835 1 4036 4037
3836 1 4037 4038
3837 1 4038 4039
3838 1 4039 4040
3839 1 4041 4042
3840 1 4042 4043
3841 1 4043 4044
3842 1 4044 4045
3843 1 4045 4046
3844 1 4046 4047
3845 1 4047 4048
3846 1 4048 4049
3847 1 4049 4050
3848 1 4050 4051
3849 1 4051 4052
3850 1 4052 4053
3851 1 4053 4054
3852 1 4054 4055
3853 1 4055 4056
3854 1 4056 4057
3855 1 4057 4058
3856 1 4058 4059
3857 1 4059 4060
3858 1 4061 4062
3859 1 4062 4063
3860 1 4063 4064
3861 1 4064 4065
3862 1 4065 4066
3863 1 4066 4067
3864 1 4067 4068
3865 1 4068 4069
3866 1 4069 4070
3867 1 4070 4071
3868 1 4071 4072
3869 1 4072 4073
3870 1 4073 4074
3871 1 4074 4075
3872 1 4075 4076
3873 1 4076 4077
3874 1 4077 4078
3875 1 4078 4079
3876 1 4079 4080
3877 1 4081 4082
3878 1 4082 4083
3879 1 4083 4084
3880 1 4084 4085
3881 1 4085 4086
3882 1 4086 4087
3883 1 4087 4088
3884 1 4088 4089
3885 1 4089 4090
3886 1 4090 4091
3887 1 4091 4092
3888 1 4092 4093
3889 1 4093 4094
3890 1 4094 4095
3891 1 4095 4096
3892 1 4096 4097
3893 1 4097 4098
3894 1 4098 4099
3895 1 4099 4100
3896 1 4101 4102
3897 1 4102 4103
3898 1 4103 4104
3899 1 4104 4105
3900 1 4105 4106
3901 1 4106 4107
3902 1 4107 4108
3903 1 4108 4109
3904 1 4109 4110
3905 1 4110 4111
3906 1 4111 4112
3907 1 4112 4113
3908 1 4113 4114
3909 1 4114 4115
3910 1 4115 4116
3911 1 4116 4117
3912 1 4117 4118
3913 1 4118 4119
3914 1 4119 4120
3915 1 4121 4122
3916 1 4122 4123
3917 1 4123 4124
3918 1 4124 4125
3919 1 4125 4126
3920 1 4126 4127
3921 1 4127 4128
3922 1 4128 4129
3923 1 4129 4130
3924 1 4130 4131
3925 1 4131 4132
3926 1 4132 4133
3927 1 4133 4134
3928 1 4134 4135
3929 1 4135 4136
3930 1 4136 4137
3931 1 4137 4138
3932 1 4138 4139
3933 1 4139 4140
3934 1 4141 4142
3935 1 4142 4143
3936 1 4143 4144
3937 1 4144 4145
3938 1 4145 4146
3939 1 4146 4147
3940 1 4147 4148
3941 1 4148 4149
3942 1 4149 4150
3943 1 4150 4151
3944 1 4151 4152
3945 1 4152 4153
3946 1 4153 4154
3947 1 4154 4155
3948 1 4155 4156
3949 1 4156 4157
3950 1 4157 4158
3951 1 4158 4159
3952 1 4159 4160
3953 1 4161 4162
3954 1 4162 4163
3955 1 4163 4164
3956 1 4164 4165
3957 1 4165 4166
3958 1 4166 4167
3959 1 4167 4168
3960 1 4168 4169
3961 1 4169 4170
3962 1 4170 4171
3963 1 4171 4172
3964 1 4172 4173
3965 1 4173 4174
3966 1 4174 4175
3967 1 4175 4176
3968 1 4176 4177
3969 1 4177 4178
3970 1 4178 4179
3971 1 4179 4180
3972 1 4181 4182
3973 1 4182 4183
3974 1 4183 4184
3975 1 4184 4185
3976 1 4185 4186
3977 1 4186 4187
3978 1 4187 4188
3979 1 4188 4189
3980 1 4189 4190
3981 1 4190 4191
3982 1 4191 4192
3983 1 4192 4193
3984 1 4193 4194
3985 1 4194 4195
3986 1 4195 4196
3987 1 4196 4197
3988 1 4197 4198
3989 1 4198 4199
3990 1 4199 4200
3991 1 4201 4202
3992 1 4202 4203
3993 1 4203 4204
3994 1 4204 4205
3995 1 4205 4206
3996 1 4206 4207
3997 1 4207 4208
3998 1 4208 4209
3999 1 4209 4210
4000 1 4210 4211
4001 1 4211 4212
4002 1 4212 4213
4003 1 4213 4214
4004 1 4214 4215
4005 1 4215 4216
4006 1 4216 4217
4007 1 4217 4218
4008 1 4218 4219
4009 1 4219 4220
4010 1 4221 4222
4011 1 4222 4223
4012 1 4223 4224
4013 1 4224 4225
4014 1 4225 4226
4015 1 4226 4227
4016 1 4227 4228
4017 1 4228 4229
4018 1 4229 4230
4019 1 4230 4231
4020 1 4231 4232
4021 1 4232 4233
4022 1 4233 4234
4023 1 4234 4235
4024 1 4235 4236
4025 1 4236 4237
4026 1 4237 4238
4027 1 4238 4239
4028 1 4239 4240
4029 1 4241 4242
4030 1 4242 4243
4031 1 4243 4244
4032 1 4244 4245
4033 1 4245 4246
4034 1 4246 4247
4035 1 4247 4248
4036 1 4248 4249
4037 1 4249 4250
4038 1 4250 4251
4039 1 4251 4252
4040 1 4252 4253
4041 1 4253 4254
4042 1 4254 4255
4043 1 4255 4256
4044 1 4256 4257
4045 1 4257 4258
4046 1 4258 4259
4047 1 4259 4260
4048 1 4261 4262
4049 1 4262 4263
4050 1 4263 4264
4051 1 4264 4265
4052 1 4265 4266
4053 1 4266 4267
4054 1 4267 4268
4055 1 4268 4269
4056 1 4269 4270
4057 1 4270 4271
4058 1 4271 4272
4059 1 4272 4273
4060 1 4273 4274
4061 1 4274 4275
4062 1 4275 4276
4063 1 4276 4277
4064 1 4277 4278
4065 1 4278 4279
4066 1 4279 4280
4067 1 4281 4282
4068 1 4282 4283
4069 1 4283 4284
4070 1 4284 4285
4071 1 4285 4286
4072 1 4286 4287
4073 1 4287 4288
4074 1 4288 4289
4075 1 4289 4290
4076 1 4290 4291
4077 1 4291 4292
4078 1 4292 4293
4079 1 4293 4294
4080 1 4294 4295
4081 1 4295 4296
4082 1 4296 4297
4083 1 4297 4298
4084 1 4298 4299
4085 1 4299 4300
4086 1 4301 4302
4087 1 4302 4303
4088 1 4303 4304
4089 1 4304 4305
4090 1 4305 4306
4091 1 4306 4307
4092 1 4307 4308
4093 1 4308 4309
4094 1 4309 4310
4095 1 4310 4311
4096 1 4311 4312
4097 1 4312 4313
4098 1 4313 4314
4099 1 4314 4315
4100 1 4315 4316
4101 1 4316 4317
4102 1 4317 4318
4103 1 4318 4319
4104 1 4319 4320
4105 1 4321 4322
4106 1 4322 4323
4107 1 4323 4324
4108 1 4324 4325
4109 1 4325 4326
4110 1 4326 4327
4111 1 4327 4328
4112 1 4328 4329
4113 1 4329 4330
4114 1 4330 4331
4115 1 4331 4332
4116 1 4332 4333
4117 1 4333 4334
4118 1 4334 4335
4119 1 4335 4336
4120 1 4336 4337
4121 1 4337 4338
4122 1 4338 4339
4123 1 4339 4340
4124 1 4341 4342
4125 1 4342 4343
4126 1 4343 4344
4127 1 4344 4345
4128 1 4345 4346
4129 1 4346 4347
4130 1 4347 4348
4131 1 4348 4349
4132 1 4349 4350
4133 1 4350 4351
4134 1 4351 4352
4135 1 4352 4353
4136 1 4353 4354
4137 1 4354 4355
4138 1 4355 4356
4139 1 4356 4357
4140 1 4357 4358
4141 1 4358 4359
4142 1 4359 4360
4143 1 4361 4362
4144 1 4362 4363
4145 1 4363 4364
4146 1 4364 4365
4147 1 4365 4366
4148 1 4366 4367
4149 1 4367 4368
4150 1 4368 4369
4151 1 4369 4370
4152 1 4370 4371
4153 1 4371 4372
4154 1 4372 4373
4155 1 4373 4374
4156 1 4374 4375
4157 1 4375 4376
4158 1 4376 4377
4159 1 4377 4378
4160 1 4378 4379
4161 1 4379 4380
4162 1 4381 4382
4163 1 4382 4383
4164 1 4383 4384
4165 1 4384 4385
4166 1 4385 4386
4167 1 4386 4387
4168 1 4387 4388
4169 1 4388 4389
4170 1 4389 4390
4171 1 4390 4391
4172 1 4391 4392
4173 1 4392 4393
4174 1 4393 4394
4175 1 4394 4395
4176 1 4395 4396
4177 1 4396 4397
4178 1 4397 4398
4179 1 4398 4399
4180 1 4399 4400
4181 1 4401 4402
4182 1 4402 4403
4183 1 4403 4404
4184 1 4404 4405
4185 1 4405 4406
4186 1 4406 4407
4187 1 4407 4408
4188 1 4408 4409
4189 1 4409 4410
4190 1 4410 4411
4191 1 4411 4412
4192 1 4412 4413
4193 1 4413 4414
4194 1 4414 4415
4195 1 4415 4416
4196 1 4416 4417
4197 1 4417 4418
4198 1 4418 4419
4199 1 4419 4420
4200 1 4421 4422
4201 1 4422 4423
4202 1 4423 4424
4203 1 4424 4425
4204 1 4425 4426
4205 1 4426 4427
4206 1 4427 4428
4207 1 4428 4429
4208 1 4429 4430
4209 1 4430 4431
4210 1 4431 4432
4211 1 4432 4433
4212 1 4433 4434
4213 1 4434 4435
4214 1 4435 4436
4215 1 4436 4437
4216 1 4437 4438
4217 1 4438 4439
4218 1 4439 4440
4219 1 4441 4442
4220 1 4442 4443
4221 1 4443 4444
4222 1 4444 4445
4223 1 4445 4446
4224 1 4446 4447
4225 1 4447 4448
4226 1 4448 4449
4227 1 4449 4450
4228 1 4450 4451
4229 1 4451 4452
4230 1 4452 4453
4231 1 4453 4454
4232 1 4454 4455
4233 1 4455 4456
4234 1 4456 4457
4235 1 4457 4458
4236 1 4458 4459
4237 1 4459 4460
4238 1 4461 4462
4239 1 4462 4463
4240 1 4463 4464
4241 1 4464 4465
4242 1 4465 4466
4243 1 4466 4467
4244 1 4467 4468
4245 1 4468 4469
4246 1 4469 4470
4247 1 4470 4471
4248 1 4471 4472
4249 1 4472 4473
4250 1 4473 4474
4251 1 4474 4475
4252 1 4475 4476
4253 1 4476 4477
4254 1 4477 4478
4255 1 4478 4479
4256 1 4479 4480
4257 1 4481 4482
4258 1 4482 4483
4259 1 4483 4484
4260 1 4484 4485
4261 1 4485 4486
4262 1 4486 4487
4263 1 4487 4488
4264 1 4488 4489
4265 1 4489 4490
4266 1 4490 4491
4267 1 4491 4492
4268 1 4492 4493
4269 1 4493 4494
4270 1 4494 4495
4271 1 4495 4496
4272 1 4496 4497
4273 1 4497 4498
4274 1 4498 4499
4275 1 4499 4500
4276 1 4501 4502
4277 1 4502 4503
4278 1 4503 4504
4279 1 4504 4505
4280 1 4505 4506
4281 1 4506 4507
4282 1 4507 4508
4283 1 4508 4509
4284 1 4509 4510
4285 1 4510 4511
4286 1 4511 4512
4287 1 4512 4513
4288 1 4513 4514
4289 1 4514 4515
4290 1 4515 4516
4291 1 4516 4517
4292 1 4517 4518
4293 1 4518 4519
4294 1 4519 4520
4295 1 4521 4522
4296 1 4522 4523
4297 1 4523 4524
4298 1 4524 4525
4299 1 4525 4526
4300 1 4526 4527
4301 1 4527 4528
4302 1 4528 4529
4303 1 4529 4530
4304 1 4530 4531
4305 1 4531 4532
4306 1 4532 4533
4307 1 4533 4534
4308 1 4534 4535
4309 1 4535 4536
4310 1 4536 4537
4311 1 4537 4538
4312 1 4538 4539
4313 1 4539 4540
4314 1 4541 4542
4315 1 4542 4543
4316 1 4543 4544
4317 1 4544 4545
4318 1 4545 4546
4319 1 4546 4547
4320 1 4547 4548
4321 1 4548 4549
4322 1 4549 4550
4323 1 4550 4551
4324 1 4551 4552
4325 1 4552 4553
4326 1 4553 4554
4327 1 4554 4555
4328 1 4555 4556
4329 1 4556 4557
4330 1 4557 4558
4331 1 4558 4559
4332 1 4559 4560
4333 1 4561 4562
4334 1 4562 4563
4335 1 4563 4564
4336 1 4564 4565
4337 1 4565 4566
4338 1 4566 4567
4339 1 4567 4568
4340 1 4568 4569
4341 1 4569 4570
4342 1 4570 4571
4343 1 4571 4572
4344 1 4572 4573
4345 1 4573 4574
4346 1 4574 4575
4347 1 4575 4576
4348 1 4576 4577
4349 1 4577 4578
4350 1 4578 4579
4351 1 4579 4580
4352 1 4581 4582
4353 1 4582 4583
4354 1 4583 4584
4355 1 4584 4585
4356 1 4585 4586
4357 1 4586 4587
4358 1 4587 4588
4359 1 4588 4589
4360 1 4589 4590
4361 1 4590 4591
4362 1 4591 4592
4363 1 4592 4593
4364 1 4593 4594
4365 1 4594 4595
4366 1 4595 4596
4367 1 4596 4597
4368 1 4597 4598
4369 1 4598 4599
4370 1 4599 4600
4371 1 4601 4602
4372 1 4602 4603
4373 1 4603 4604
4374 1 4604 4605
4375 1 4605 4606
4376 1 4606 4607
4377 1 4607 4608
4378 1 4608 4609
4379 1 4609 4610
4380 1 4610 4611
4381 1 4611 4612
4382 1 4612 4613
4383 1 4613 4614
4384 1 4614 4615
4385 1 4615 4616
4386 1 4616 4617
4387 1 4617 4618
4388 1 4618 4619
4389 1 4619 4620
4390 1 4621 4622
4391 1 4622 4623
4392 1 4623 4624
4393 1 4624 4625
4394 1 4625 4626
4395 1 4626 4627
4396 1 4627 4628
4397 1 4628 4629
4398 1 4629 4630
4399 1 4630 4631
4400 1 4631 4632
4401 1 4632 4633
4402 1 4633 4634
4403 1 4634 4635
4404 1 4635 4636
4405 1 4636 4637
4406 1 4637 4638
4407 1 4638 4639
4408 1 4639 4640
4409 1 4641 4642
4410 1 4642 4643
4411 1 4643 4644
4412 1 4644 4645
4413 1 4645 4646
4414 1 4646 4647
4415 1 4647 4648
4416 1 4648 4649
4417 1 4649 4650
4418 1 4650 4651
4419 1 4651 4652
4420 1 4652 4653
4421 1 4653 4654
4422 1 4654 4655
4423 1 4655 4656
4424 1 4656 4657
4425 1 4657 4658
4426 1 4658 4659
4427 1 4659 4660
4428 1 4661 4662
4429 1 4662 4663
4430 1 4663 4664
4431 1 4664 4665
4432 1 4665 4666
4433 1 4666 4667
4434 1 4667 4668
4435 1 4668 4669
4436 1 4669 4670
4437 1 4670 4671
4438 1 4671 4672
4439 1 4672 4673
4440 1 4673 4674
4441 1 4674 4675
4442 1 4675 4676
4443 1 4676 4677
4444 1 4677 4678
4445 1 4678 4679
4446 1 4679 4680
4447 1 4681 4682
4448 1 4682 4683
4449 1 4683 4684
4450 1 4684 4685
4451 1 4685 4686
4452 1 4686 4687
4453 1 4687 4688
4454 1 4688 4689
4455 1 4689 4690
4456 1 4690 4691
4457 1 4691 4692
4458 1 4692 4693
4459 1 4693 4694
4460 1 4694 4695
4461 1 4695 4696
4462 1 4696 4697
4463 1 4697 4698
4464 1 4698 4699
4465 1 4699 4700
4466 1 4701 4702
4467 1 4702 4703
4468 1 4703 4704
4469 1 4704 4705
4470 1 4705 4706
4471 1 4706 4707
4472 1 4707 4708
4473 1 4708 4709
4474 1 4709 4710
4475 1 4710 4711
4476 1 4711 4712
4477 1 4712 4713
4478 1 4713 4714
4479 1 4714 4715
4480 1 4715 4716
4481 1 4716 4717
4482 1 4717 4718
4483 1 4718 4719
4484 1 4719 4720
4485 1 4721 4722
4486 1 4722 4723
4487 1 4723 4724
4488 1 4724 4725
4489 1 4725 4726
4490 1 4726 4727
4491 1 4727 4728
4492 1 4728 4729
4493 1 4729 4730
4494 1 4730 4731
4495 1 4731 4732
4496 1 4732 4733
4497 1 4733 4734
4498 1 4734 4735
4499 1 4735 4736
4500 1 4736 4737
4501 1 4737 4738
4502 1 4738 4739
4503 1 4739 4740
4504 1 4741 4742
4505 1 4742 4743
4506 1 4743 4744
4507 1 4744 4745
4508 1 4745 4746
4509 1 4746 4747
4510 1 4747 4748
4511 1 4748 4749
4512 1 4749 4750
4513 1 4750 4751
4514 1 4751 4752
4515 1 4752 4753
4516 1 4753 4754
4517 1 4754 4755
4518 1 4755 4756
4519 1 4756 4757
4520 1 4757 4758
4521 1 4758 4759
4522 1 4759 4760
4523 1 4761 4762
4524 1 4762 4763
4525 1 4763 4764
4526 1 4764 4765
4527 1 4765 4766
4528 1 4766 4767
4529 1 4767 4768
4530 1 4768 4769
4531 1 4769 4770
4532 1 4770 4771
4533 1 4771 4772
4534 1 4772 4773
4535 1 4773 4774
4536 1 4774 4775
4537 1 4775 4776
4538 1 4776 4777
4539 1 4777 4778
4540 1 4778 4779
4541 1 4779 4780
4542 1 4781 4782
4543 1 4782 4783
4544 1 4783 4784
4545 1 4784 4785
4546 1 4785 4786
4547 1 4786 4787
4548 1 4787 4788
4549 1 4788 4789
4550 1 4789 4790
4551 1 4790 4791
4552 1 4791 4792
4553 1 4792 4793
4554 1 4793 4794
4555 1 4794 4795
4556 1 4795 4796
4557 1 4796 4797
4558 1 4797 4798
4559 1 4798 4799
4560 1 4799 4800
4561 1 4801 4802
4562 1 4802 4803
4563 1 4803 4804
4564 1 4804 4805
4565 1 4805 4806
4566 1 4806 4807
4567 1 4807 4808
4568 1 4808 4809
4569 1 4809 4810
4570 1 4810 4811
4571 1 4811 4812
4572 1 4812 4813
4573 1 4813 4814
4574 1 4814 4815
4575 1 4815 4816
4576 1 4816 4817
4577 1 4817 4818
4578 1 4818 4819
4579 1 4819 4820
4580 1 4821 4822
4581 1 4822 4823
4582 1 4823 4824
4583 1 4824 4825
4584 1 4825 4826
4585 1 4826 4827
4586 1 4827 4828
4587 1 4828 4829
4588 1 4829 4830
4589 1 4830 4831
4590 1 4831 4832
4591 1 4832 4833
4592 1 4833 4834
4593 1 4834 4835
4594 1 4835 4836
4595 1 4836 4837
4596 1 4837 4838
4597 1 4838 4839
4598 1 4839 4840
4599 1 4841 4842
4600 1 4842 4843
4601 1 4843 4844
4602 1 4844 4845
4603 1 4845 4846
4604 1 4846 4847
4605 1 4847 4848
4606 1 4848 4849
4607 1 4849 4850
4608 1 4850 4851
4609 1 4851 4852
4610 1 4852 4853
4611 1 4853 4854
4612 1 4854 4855
4613 1 4855 4856
4614 1 4856 4857
4615 1 4857 4858
4616 1 4858 4859
4617 1 4859 4860
4618 1 4861 4862
4619 1 4862 4863
4620 1 4863 4864
4621 1 4864 4865
4622 1 4865 4866
4623 1 4866 4867
4624 1 4867 4868
4625 1 4868 4869
4626 1 4869 4870
4627 1 4870 4871
4628 1 4871 4872
4629 1 4872 4873
4630 1 4873 4874
4631 1 4874 4875
4632 1 4875 4876
4633 1 4876 4877
4634 1 4877 4878
4635 1 4878 4879
4636 1 4879 4880
4637 1 4881 4882
4638 1 4882 4883
4639 1 4883 4884
4640 1 4884 4885
4641 1 4885 4886
4642 1 4886 4887
4643 1 4887 4888
4644 1 4888 4889
4645 1 4889 4890
4646 1 4890 4891
4647 1 4891 4892
4648 1 4892 4893
4649 1 4893 4894
4650 1 4894 4895
4651 1 4895 4896
4652 1 4896 4897
4653 1 4897 4898
4654 1 4898 4899
4655 1 4899 4900
4656 1 4901 4902
4657 1 4902 4903
4658 1 4903 4904
4659 1 4904 4905
4660 1 4905 4906
4661 1 4906 4907
4662 1 4907 4908
4663 1 4908 4909
4664 1 4909 4910
4665 1 4910 4911
4666 1 4911 4912
4667 1 4912 4913
4668 1 4913 4914
4669 1 4914 4915
4670 1 4915 4916
4671 1 4916 4917
4672 1 4917 4918
4673 1 4918 4919
4674 1 4919 4920
4675 1 4921 4922
4676 1 4922 4923
4677 1 4923 4924
4678 1 4924 4925
4679 1 4925 4926
4680 1 4926 4927
4681 1 4927 4928
4682 1 4928 4929
4683 1 4929 4930
4684 1 4930 4931
4685 1 4931 4932
4686 1 4932 4933
4687 1 4933 4934
4688 1 4934 4935
4689 1 4935 4936
4690 1 4936 4937
4691 1 4937 4938
4692 1 4938 4939
4693 1 4939 4940
4694 1 4941 4942
4695 1 4942 4943
4696 1 4943 4944
4697 1 4944 4945
4698 1 4945 4946
4699 1 4946 4947
4700 1 4947 4948
4701 1 4948 4949
4702 1 4949 4950
4703 1 4950 4951
4704 1 4951 4952
4705 1 4952 4953
4706 1 4953 4954
4707 1 4954 4955
4708 1 4955 4956
4709 1 4956 4957
4710 1 4957 4958
4711 1 4958 4959
4712 1 4959 4960
4713 1 4961 4962
4714 1 4962 4963
4715 1 4963 4964
4716 1 4964 4965
4717 1 4965 4966
4718 1 4966 4967
4719 1 4967 4968
4720 1 4968 4969
4721 1 4969 4970
4722 1 4970 4971
4723 1 4971 4972
4724 1 4972 4973
4725 1 4973 4974
4726 1 4974 4975
4727 1 4975 4976
4728 1 4976 4977
4729 1 4977 4978
4730 1 4978 4979
4731 1 4979 4980
4732 1 4981 4982
4733 1 4982 4983
4734 1 4983 4984
4735 1 4984 4985
4736 1 4985 4986
4737 1 4986 4987
4738 1 4987 4988
4739 1 4988 4989
4740 1 4989 4990
4741 1 4990 4991
4742 1 4991 4992
4743 1 4992 4993
4744 1 4993 4994
4745 1 4994 4995
4746 1 4995 4996
4747 1 4996 4997
4748 1 4997 4998
4749 1 4998 4999
4750 1 4999 5000
4751 1 5001 5002
4752 1 5002 5003
4753 1 5003 5004
4754 1 5004 5005
4755 1 5005 5006
4756 1 5006 5007
4757 1 5007 5008
4758 1 5008 5009
4759 1 5009 5010
4760 1 5010 5011
4761 1 5011 5012
4762 1 5012 5013
4763 1 5013 5014
4764 1 5014 5015
4765 1 5015 5016
4766 1 5016 5017
4767 1 5017 5018
4768 1 5018 5019
4769 1 5019 5020
4770 1 5021 5022
4771 1 5022 5023
4772 1 5023 5024
4773 1 5024 5025
4774 1 5025 5026
4775 1 5026 5027
4776 1 5027 5028
4777 1 5028 5029
4778 1 5029 5030
4779 1 5030 5031
4780 1 5031 5032
4781 1 5032 5033
4782 1 5033 5034
4783 1 5034 5035
4784 1 5035 5036
4785 1 5036 5037
4786 1 5037 5038
4787 1 5038 5039
4788 1 5039 5040
4789 1 5041 5042
4790 1 5042 5043
4791 1 5043 5044
4792 1 5044 5045
4793 1 5045 5046
4794 1 5046 5047
4795 1 5047 5048
4796 1 5048 5049
4797 1 5049 5050
4798 1 5050 5051
4799 1 5051 5052
4800 1 5052 5053
4801 1 5053 5054
4802 1 5054 5055
4803 1 5055 5056
4804 1 5056 5057
4805 1 5057 5058
4806 1 5058 5059
4807 1 5059 5060
4808 1 5061 5062
4809 1 5062 5063
4810 1 5063 5064
4811 1 5064 5065
4812 1 5065 5066
4813 1 5066 5067
4814 1 5067 5068
4815 1 5068 5069
4816 1 5069 5070
4817 1 5070 5071
4818 1 5071 5072
4819 1 5072 5073
4820 1 5073 5074
4821 1 5074 5075
4822 1 5075 5076
4823 1 5076 5077
4824 1 5077 5078
4825 1 5078 5079
4826 1 5079 5080
4827 1 5081 5082
4828 1 5082 5083
4829 1 5083 5084
4830 1 5084 5085
4831 1 5085 5086
4832 1 5086 5087
4833 1 5087 5088
4834 1 5088 5089
4835 1 5089 5090
4836 1 5090 5091
4837 1 5091 5092
4838 1 5092 5093
4839 1 5093 5094
4840 1 5094 5095
4841 1 5095 5096
4842 1 5096 5097
4843 1 5097 5098
4844 1 5098 5099
4845 1 5099 5100
4846 1 5101 5102
4847 1 5102 5103
4848 1 5103 5104
4849 1 5104 5105
4850 1 5105 5106
4851 1 5106 5107
4852 1 5107 5108
4853 1 5108 5109
4854 1 5109 5110
4855 1 5110 5111
4856 1 5111 5112
4857 1 5112 5113
4858 1 5113 5114
4859 1 5114 5115
4860 1 5115 5116
4861 1 5116 5117
4862 1 5117 5118
4863 1 5118 5119
4864 1 5119 5120
4865 1 5121 5122
4866 1 5122 5123
4867 1 5123 5124
4868 1 5124 5125
4869 1 5125 5126
4870 1 5126 5127
4871 1 5127 5128
4872 1 5128 5129
4873 1 5129 5130
4874 1 5130 5131
4875 1 5131 5132
4876 1 5132 5133
4877 1 5133 5134
4878 1 5134 5135
4879 1 5135 5136
4880 1 5136 5137
4881 1 5137 5138
4882 1 5138 5139
4883 1 5139 5140
4884 1 5141 5142
4885 1 5142 5143
4886 1 5143 5144
4887 1 5144 5145
4888 1 5145 5146
4889 1 5146 5147
4890 1 5147 5148
4891 1 5148 5149
4892 1 5149 5150
4893 1 5150 5151
4894 1 5151 5152
4895 1 5152 5153
4896 1 5153 5154
4897 1 5154 5155
4898 1 5155 5156
4899 1 5156 5157
4900 1 5157 5158
4901 1 5158 5159
4902 1 5159 5160
4903 1 5161 5162
4904 1 5162 5163
4905 1 5163 5164
4906 1 5164 5165
4907 1 5165 5166
4908 1 5166 5167
4909 1 5167 5168
4910 1 5168 5169
4911 1 5169 5170
4912 1 5170 5171
4913 1 5171 5172
4914 1 5172 5173
4915 1 5173 5174
4916 1 5174 5175
4917 1 5175 5176
4918 1 5176 5177
4919 1 5177 5178
4920 1 5178 5179
4921 1 5179 5180
4922 1 5181 5182
4923 1 5182 5183
4924 1 5183 5184
4925 1 5184 5185
4926 1 5185 5186
4927 1 5186 5187
4928 1 5187 5188
4929 1 5188 5189
4930 1 5189 5190
4931 1 5190 5191
4932 1 5191 5192
4933 1 5192 5193
4934 1 5193 5194
4935 1 5194 5195
4936 1 5195 5196
4937 1 5196 5197
4938 1 5197 5198
4939 1 5198 5199
4940 1 5199 5200
4941 1 5201 5202
4942 1 5202 5203
4943 1 5203 5204
4944 1 5204 5205
4945 1 5205 5206
4946 1 5206 5207
4947 1 5207 5208
4948 1 5208 5209
4949 1 5209 5210
4950 1 5210 5211
4951 1 5211 5212
4952 1 5212 5213
4953 1 5213 5214
4954 1 5214 5215
4955 1 5215 5216
4956 1 5216 5217
4957 1 5217 5218
4958 1 5218 5219
4959 1 5219 5220
4960 1 5221 5222
4961 1 5222 5223
4962 1 5223 5224
4963 1 5224 5225
4964 1 5225 5226
4965 1 5226 5227
4966 1 5227 5228
4967 1 5228 5229
4968 1 5229 5230
4969 1 5230 5231
4970 1 5231 5232
4971 1 5232 5233
4972 1 5233 5234
4973 1 5234 5235
4974 1 5235 5236
4975 1 5236 5237
4976 1 5237 5238
4977 1 5238 5239
4978 1 5239 5240
4979 1 5241 5242
4980 1 5242 5243
4981 1 5243 5244
4982 1 5244 5245
4983 1 5245 5246
4984 1 5246 5247
4985 1 5247 5248
4986 1 5248 5249
4987 1 5249 5250
4988 1 5250 5251
4989 1 5251 5252
4990 1 5252 5253
4991 1 5253 5254
4992 1 5254 5255
4993 1 5255 5256
4994 1 5256 5257
4995 1 5257 5258
4996 1 5258 5259
4997 1 5259 5260
4998 1 5261 5262
4999 1 5262 5263
5000 1 5263 5264
5001 1 5264 5265
5002 1 5265 5266
5003 1 5266 5267
5004 1 5267 5268
5005 1 5268 5269
5006 1 5269 5270
5007 1 5270 5271
5008 1 5271 5272
5009 1 5272 5273
5010 1 5273 5274
5011 1 5274 5275
5012 1 5275 5276
5013 1 5276 5277
5014 1 5277 5278
5015 1 5278 5279
5016 1 5279 5280
5017 1 5281 5282
5018 1 5282 5283
5019 1 5283 5284
5020 1 5284 5285
5021 1 5285 5286
5022 1 5286 5287
5023 1 5287 5288
5024 1 5288 5289
5025 1 5289 5290
5026 1 5290 5291
5027 1 5291 5292
5028 1 5292 5293
5029 1 5293 5294
5030 1 5294 5295
5031 1 5295 5296
5032 1 5296 5297
5033 1 5297 5298
5034 1 5298 5299
5035 1 5299 5300
5036 1 5301 5302
5037 1 5302 5303
5038 1 5303 5304
5039 1 5304 5305
5040 1 5305 5306
5041 1 5306 5307
5042 1 5307 5308
5043 1 5308 5309
5044 1 5309 5310
5045 1 5310 5311
5046 1 5311 5312
5047 1 5312 5313
5048 1 5313 5314
5049 1 5314 5315
5050 1 5315 5316
5051 1 5316 5317
5052 1 5317 5318
5053 1 5318 5319
5054 1 5319 5320
5055 1 5321 5322
5056 1 5322 5323
5057 1 5323 5324
5058 1 5324 5325
5059 1 5325 5326
5060 1 5326 5327
5061 1 5327 5328
5062 1 5328 5329
5063 1 5329 5330
5064 1 5330 5331
5065 1 5331 5332
5066 1 5332 5333
5067 1 5333 5334
5068 1 5334 5335
5069 1 5335 5336
5070 1 5336 5337
5071 1 5337 5338
5072 1 5338 5339
5073 1 5339 5340
5074 1 5341 5342
5075 1 5342 5343
5076 1 5343 5344
5077 1 5344 5345
5078 1 5345 5346
5079 1 5346 5347
5080 1 5347 5348
5081 1 5348 5349
5082 1 5349 5350
5083 1 5350 5351
5084 1 5351 5352
5085 1 5352 5353
5086 1 5353 5354
5087 1 5354 5355
5088 1 5355 5356
5089 1 5356 5357
5090 1 5357 5358
5091 1 5358 5359
5092 1 5359 5360
5093 1 5361 5362
5094 1 5362 5363
5095 1 5363 5364
5096 1 5364 5365
5097 1 5365 5366
5098 1 5366 5367
5099 1 5367 5368
5100 1 5368 5369
5101 1 5369 5370
5102 1 5370 5371
5103 1 5371 5372
5104 1 5372 5373
5105 1 5373 5374
5106 1 5374 5375
5107 1 5375 5376
5108 1 5376 5377
5109 1 5377 5378
5110 1 5378 5379
5111 1 5379 5380
5112 1 5381 5382
5113 1 5382 5383
5114 1 5383 5384
5115 1 5384 5385
5116 1 5385 5386
5117 1 5386 5387
5118 1 5387 5388
5119 1 5388 5389
5120 1 5389 5390
5121 1 5390 5391
5122 1 5391 5392
5123 1 5392 5393
5124 1 5393 5394
5125 1 5394 5395
5126 1 5395 5396
5127 1 5396 5397
5128 1 5397 5398
5129 1 5398 5399
5130 1 5399 5400
5131 1 5401 5402
5132 1 5402 5403
5133 1 5403 5404
5134 1 5404 5405
5135 1 5405 5406
5136 1 5406 5407
5137 1 5407 5408
5138 1 5408 5409
5139 1 5409 5410
5140 1 5410 5411
5141 1 5411 5412
5142 1 5412 5413
5143 1 5413 5414
5144 1 5414 5415
5145 1 5415 5416
5146 1 5416 5417
5147 1 5417 5418
5148 1 5418 5419
5149 1 5419 5420
5150 1 5421 5422
5151 1 5422 5423
5152 1 5423 5424
5153 1 5424 5425
5154 1 5425 5426
5155 1 5426 5427
5156 1 5427 5428
5157 1 5428 5429
5158 1 5429 5430
5159 1 5430 5431
5160 1 5431 5432
5161 1 5432 5433
5162 1 5433 5434
5163 1 5434 5435
5164 1 5435 5436
5165 1 5436 5437
5166 1 5437 5438
5167 1 5438 5439
5168 1 5439 5440
5169 1 5441 5442
5170 1 5442 5443
5171 1 5443 5444
5172 1 5444 5445
5173 1 5445 5446
5174 1 5446 5447
5175 1 5447 5448
5176 1 5448 5449
5177 1 5449 5450
5178 1 5450 5451
5179 1 5451 5452
5180 1 5452 5453
5181 1 5453 5454
5182 1 5454 5455
5183 1 5455 5456
5184 1 5456 5457
5185 1 5457 5458
5186 1 5458 5459
5187 1 5459 5460
5188 1 5461 5462
5189 1 5462 5463
5190 1 5463 5464
5191 1 5464 5465
5192 1 5465 5466
5193 1 5466 5467
5194 1 5467 5468
5195 1 5468 5469
5196 1 5469 5470
5197 1 5470 5471
5198 1 5471 5472
5199 1 5472 5473
5200 1 5473 5474
5201 1 5474 5475
5202 1 5475 5476
5203 1 5476 5477
5204 1 5477 5478
5205 1 5478 5479
5206 1 5479 5480
5207 1 5481 5482
5208 1 5482 5483
5209 1 5483 5484
5210 1 5484 5485
5211 1 5485 5486
5212 1 5486 5487
5213 1 5487 5488
5214 1 5488 5489
5215 1 5489 5490
5216 1 5490 5491
5217 1 5491 5492
5218 1 5492 5493
5219 1 5493 5494
5220 1 5494 5495
5221 1 5495 5496
5222 1 5496 5497
5223 1 5497 5498
5224 1 5498 5499
5225 1 5499 5500
5226 1 5501 5502
5227 1 5502 5503
5228 1 5503 5504
5229 1 5504 5505
5230 1 5505 5506
5231 1 5506 5507
5232 1 5507 5508
5233 1 5508 5509
5234 1 5509 5510
5235 1 5510 5511
5236 1 5511 5512
5237 1 5512 5513
5238 1 5513 5514
5239 1 5514 5515
5240 1 5515 5516
5241 1 5516 5517
5242 1 5517 5518
5243 1 5518 5519
5244 1 5519 5520
5245 1 5521 5522
5246 1 5522 5523
5247 1 5523 5524
5248 1 5524 5525
5249 1 5525 5526
5250 1 5526 5527
5251 1 5527 5528
5252 1 5528 5529
5253 1 5529 5530
5254 1 5530 5531
5255 1 5531 5532
5256 1 5532 5533
5257 1 5533 5534
5258 1 5534 5535
5259 1 5535 5536
5260 1 5536 5537
5261 1 5537 5538
5262 1 5538 5539
5263 1 5539 5540
5264 1 5541 5542
5265 1 5542 5543
5266 1 5543 5544
5267 1 5544 5545
5268 1 5545 5546
5269 1 5546 5547
5270 1 5547 5548
5271 1 5548 5549
5272 1 5549 5550
5273 1 5550 5551
5274 1 5551 5552
5275 1 5552 5553
5276 1 5553 5554
5277 1 5554 5555
5278 1 5555 5556
5279 1 5556 5557
5280 1 5557 5558
5281 1 5558 5559
5282 1 5559 5560
5283 1 5561 5562
5284 1 5562 5563
5285 1 5563 5564
5286 1 5564 5565
5287 1 5565 5566
5288 1 5566 5567
5289 1 5567 5568
5290 1 5568 5569
5291 1 5569 5570
5292 1 5570 5571
5293 1 5571 5572
5294 1 5572 5573
5295 1 5573 5574
5296 1 5574 5575
5297 1 5575 5576
5298 1 5576 5577
5299 1 5577 5578
5300 1 5578 5579
5301 1 5579 5580
5302 1 5581 5582
5303 1 5582 5583
5304 1 5583 5584
5305 1 5584 5585
5306 1 5585 5586
5307 1 5586 5587
5308 1 5587 5588
5309 1 5588 5589
5310 1 5589 5590
5311 1 5590 5591
5312 1 5591 5592
5313 1 5592 5593
5314 1 5593 5594
5315 1 5594 5595
5316 1 5595 5596
5317 1 5596 5597
5318 1 5597 5598
5319 1 5598 5599
5320 1 5599 5600
5321 1 5601 5602
5322 1 5602 5603
5323 1 5603 5604
5324 1 5604 5605
5325 1 5605 5606
5326 1 5606 5607
5327 1 5607 5608
5328 1 5608 5609
5329 1 5609 5610
5330 1 5610 5611
5331 1 5611 5612
5332 1 5612 5613
5333 1 5613 5614
5334 1 5614 5615
5335 1 5615 5616
5336 1 5616 5617
5337 1 5617 5618
5338 1 5618 5619
5339 1 5619 5620
5340 1 5621 5622
5341 1 5622 5623
5342 1 5623 5624
5343 1 5624 5625
5344 1 5625 5626
5345 1 5626 5627
5346 1 5627 5628
5347 1 5628 5629
5348 1 5629 5630
5349 1 5630 5631
5350 1 5631 5632
5351 1 5632 5633
5352 1 5633 5634
5353 1 5634 5635
5354 1 5635 5636
5355 1 5636 5637
5356 1 5637 5638
5357 1 5638 5639
5358 1 5639 5640
5359 1 5641 5642
5360 1 5642 5643
5361 1 5643 5644
5362 1 5644 5645
5363 1 5645 5646
5364 1 5646 5647
5365 1 5647 5648
5366 1 5648 5649
5367 1 5649 5650
5368 1 5650 5651
5369 1 5651 5652
5370 1 5652 5653
5371 1 5653 5654
5372 1 5654 5655
5373 1 5655 5656
5374 1 5656 5657
5375 1 5657 5658
5376 1 5658 5659
5377 1 5659 5660
5378 1 5661 5662
5379 1 5662 5663
5380 1 5663 5664
5381 1 5664 5665
5382 1 5665 5666
5383 1 5666 5667
5384 1 5667 5668
5385 1 5668 5669
5386 1 5669 5670
5387 1 5670 5671
5388 1 5671 5672
5389 1 5672 5673
5390 1 5673 5674
5391 1 5674 5675
5392 1 5675 5676
5393 1 5676 5677
5394 1 5677 5678
5395 1 5678 5679
5396 1 5679 5680
5397 1 5681 5682
5398 1 5682 5683
5399 1 5683 5684
5400 1 5684 5685
5401 1 5685 5686
5402 1 5686 5687
5403 1 5687 5688
5404 1 5688 5689
5405 1 5689 5690
5406 1 5690 5691
5407 1 5691 5692
5408 1 5692 5693
5409 1 5693 5694
5410 1 5694 5695
5411 1 5695 5696
5412 1 5696 5697
5413 1 5697 5698
5414 1 5698 5699
5415 1 5699 5700
5416 1 5701 5702
5417 1 5702 5703
5418 1 5703 5704
5419 1 5704 5705
5420 1 5705 5706
5421 1 5706 5707
5422 1 5707 5708
5423 1 5708 5709
5424 1 5709 5710
5425 1 5710 5711
5426 1 5711 5712
5427 1 5712 5713
5428 1 5713 5714
5429 1 5714 5715
5430 1 5715 5716
5431 1 5716 5717
5432 1 5717 5718
5433 1 5718 5719
5434 1 5719 5720
5435 1 5721 5722
5436 1 5722 5723
5437 1 5723 5724
5438 1 5724 5725
5439 1 5725 5726
5440 1 5726 5727
5441 1 5727 5728
5442 1 5728 5729
5443 1 5729 5730
5444 1 5730 5731
5445 1 5731 5732
5446 1 5732 5733
5447 1 5733 5734
5448 1 5734 5735
5449 1 5735 5736
5450 1 5736 5737
5451 1 5737 5738
5452 1 5738 5739
5453 1 5739 5740
5454 1 5741 5742
5455 1 5742 5743
5456 1 5743 5744
5457 1 5744 5745
5458 1 5745 5746
5459 1 5746 5747
5460 1 5747 5748
5461 1 5748 5749
5462 1 5749 5750
5463 1 5750 5751
5464 1 5751 5752
5465 1 5752 5753
5466 1 5753 5754
5467 1 5754 5755
5468 1 5755 5756
5469 1 5756 5757
5470 1 5757 5758
5471 1 5758 5759
5472 1 5759 5760
5473 1 5761 5762
5474 1 5762 5763
5475 1 5763 5764
5476 1 5764 5765
5477 1 5765 5766
5478 1 5766 5767
5479 1 5767 5768
5480 1 5768 5769
5481 1 5769 5770
5482 1 5770 5771
5483 1 5771 5772
5484 1 5772 5773
5485 1 5773 5774
5486 1 5774 5775
5487 1 5775 5776
5488 1 5776 5777
5489 1 5777 5778
5490 1 5778 5779
5491 1 5779 5780
5492 1 5781 5782
5493 1 5782 5783
5494 1 5783 5784
5495 1 5784 5785
5496 1 5785 5786
5497 1 5786 5787
5498 1 5787 5788
5499 1 5788 5789
5500 1 5789 5790
5501 1 5790 5791
5502 1 5791 5792
5503 1 5792 5793
5504 1 5793 5794
5505 1 5794 5795
5506 1 5795 5796
5507 1 5796 5797
5508 1 5797 5798
5509 1 5798 5799
5510 1 5799 5800
5511 1 5801 5802
5512 1 5802 5803
5513 1 5803 5804
5514 1 5804 5805
5515 1 5805 5806
5516 1 5806 5807
5517 1 5807 5808
5518 1 5808 5809
5519 1 5809 5810
5520 1 5810 5811
5521 1 5811 5812
5522 1 5812 5813
5523 1 5813 5814
5524 1 5814 5815
5525 1 5815 5816
5526 1 5816 5817
5527 1 5817 5818
5528 1 5818 5819
5529 1 5819 5820
5530 1 5821 5822
5531 1 5822 5823
5532 1 5823 5824
5533 1 5824 5825
5534 1 5825 5826
5535 1 5826 5827
5536 1 5827 5828
5537 1 5828 5829
5538 1 5829 5830
5539 1 5830 5831
5540 1 5831 5832
5541 1 5832 5833
5542 1 5833 5834
5543 1 5834 5835
5544 1 5835 5836
5545 1 5836 5837
5546 1 5837 5838
5547 1 5838 5839
5548 1 5839 5840
5549 1 5841 5842
5550 1 5842 5843
5551 1 5843 5844
5552 1 5844 5845
5553 1 5845 5846
5554 1 5846 5847
5555 1 5847 5848
5556 1 5848 5849
5557 1 5849 5850
5558 1 5850 5851
5559 1 5851 5852
5560 1 5852 5853
5561 1 5853 5854
5562 1 5854 5855
5563 1 5855 5856
5564 1 5856 5857
5565 1 5857 5858
5566 1 5858 5859
5567 1 5859 5860
5568 1 5861 5862
5569 1 5862 5863
5570 1 5863 5864
5571 1 5864 5865
5572 1 5865 5866
5573 1 5866 5867
5574 1 5867 5868
5575 1 5868 5869
5576 1 5869 5870
5577 1 5870 5871
5578 1 5871 5872
5579 1 5872 5873
5580 1 5873 5874
5581 1 5874 5875
5582 1 5875 5876
5583 1 5876 5877
5584 1 5877 5878
5585 1 5878 5879
5586 1 5879 5880
5587 1 5881 5882
5588 1 5882 5883
5589 1 5883 5884
5590 1 5884 5885
5591 1 5885 5886
5592 1 5886 5887
5593 1 5887 5888
5594 1 5888 5889
5595 1 5889 5890
5596 1 5890 5891
5597 1 5891 5892
5598 1 5892 5893
5599 1 5893 5894
5600 1 5894 5895
5601 1 5895 5896
5602 1 5896 5897
5603 1 5897 5898
5604 1 5898 5899
5605 1 5899 5900
5606 1 5901 5902
5607 1 5902 5903
5608 1 5903 5904
5609 1 5904 5905
5610 1 5905 5906
5611 1 5906 5907
5612 1 5907 5908
5613 1 5908 5909
5614 1 5909 5910
5615 1 5910 5911
5616 1 5911 5912
5617 1 5912 5913
5618 1 5913 5914
5619 1 5914 5915
5620 1 5915 5916
5621 1 5916 5917
5622 1 5917 5918
5623 1 5918 5919
5624 1 5919 5920
5625 1 5921 5922
5626 1 5922 5923
5627 1 5923 5924
5628 1 5924 5925
5629 1 5925 5926
5630 1 5926 5927
5631 1 5927 5928
5632 1 5928 5929
5633 1 5929 5930
5634 1 5930 5931
5635 1 5931 5932
5636 1 5932 5933
5637 1 5933 5934
5638 1 5934 5935
5639 1 5935 5936
5640 1 5936 5937
5641 1 5937 5938
5642 1 5938 5939
5643 1 5939 5940
5644 1 5941 5942
5645 1 5942 5943
5646 1 5943 5944
5647 1 5944 5945
5648 1 5945 5946
5649 1 5946 5947
5650 1 5947 5948
5651 1 5948 5949
5652 1 5949 5950
5653 1 5950 5951
5654 1 5951 5952
5655 1 5952 5953
5656 1 5953 5954
5657 1 5954 5955
5658 1 5955 5956
5659 1 5956 5957
5660 1 5957 5958
5661 1 5958 5959
5662 1 5959 5960
5663 1 5961 5962
5664 1 5962 5963
5665 1 5963 5964
5666 1 5964 5965
5667 1 5965 5966
5668 1 5966 5967
5669 1 5967 5968
5670 1 5968 5969
5671 1 5969 5970
5672 1 5970 5971
5673 1 5971 5972
5674 1 5972 5973
5675 1 5973 5974
5676 1 5974 5975
5677 1 5975 5976
5678 1 5976 5977
5679 1 5977 5978
5680 1 5978 5979
5681 1 5979 5980
5682 1 5981 5982
5683 1 5982 5983
5684 1 5983 5984
5685 1 5984 5985
5686 1 5985 5986
5687 1 5986 5987
5688 1 5987 5988
5689 1 5988 5989
5690 1 5989 5990
5691 1 5990 5991
5692 1 5991 5992
5693 1 5992 5993
5694 1 5993 5994
5695 1 5994 5995
5696 1 5995 5996
5697 1 5996 5997
5698 1 5997 5998
5699 1 5998 5999
5700 1 5999 6000
5701 1 6001 6002
5702 1 6002 6003
5703 1 6003 6004
5704 1 6004 6005
5705 1 6005 6006
5706 1 6006 6007
5707 1 6007 6008
5708 1 6008 6009
5709 1 6009 6010
5710 1 6010 6011
5711 1 6011 6012
5712 1 6012 6013
5713 1 6013 6014
5714 1 6014 6015
5715 1 6015 6016
5716 1 6016 6017
5717 1 6017 6018
5718 1 6018 6019
5719 1 6019 6020
5720 1 6021 6022
5721 1 6022 6023
5722 1 6023 6024
5723 1 6024 6025
5724 1 6025 6026
5725 1 6026 6027
5726 1 6027 6028
5727 1 6028 6029
5728 1 6029 6030
5729 1 6030 6031
5730 1 6031 6032
5731 1 6032 6033
5732 1 6033 6034
5733 1 6034 6035
5734 1 6035 6036
5735 1 6036 6037
5736 1 6037 6038
5737 1 6038 6039
5738 1 6039 6040
5739 1 6041 6042
5740 1 6042 6043
5741 1 6043 6044
5742 1 6044 6045
5743 1 6045 6046
5744 1 6046 6047
5745 1 6047 6048
5746 1 6048 6049
5747 1 6049 6050
5748 1 6050 6051
5749 1 6051 6052
5750 1 6052 6053
5751 1 6053 6054
5752 1 6054 6055
5753 1 6055 6056
5754 1 6056 6057
5755 1 6057 6058
5756 1 6058 6059
5757 1 6059 6060
5758 1 6061 6062
5759 1 6062 6063
5760 1 6063 6064
5761 1 6064 6065
5762 1 6065 6066
5763 1 6066 6067
5764 1 6067 6068
5765 1 6068 6069
5766 1 6069 6070
5767 1 6070 6071
5768 1 6071 6072
5769 1 6072 6073
5770 1 6073 6074
5771 1 6074 6075
5772 1 6075 6076
5773 1 6076 6077
5774 1 6077 6078
5775 1 6078 6079
5776 1 6079 6080
5777 1 6081 6082
5778 1 6082 6083
5779 1 6083 6084
5780 1 6084 6085
5781 1 6085 6086
5782 1 6086 6087
5783 1 6087 6088
5784 1 6088 6089
5785 1 6089 6090
5786 1 6090 6091
5787 1 6091 6092
5788 1 6092 6093
5789 1 6093 6094
5790 1 6094 6095
5791 1 6095 6096
5792 1 6096 6097
5793 1 6097 6098
5794 1 6098 6099
5795 1 6099 6100
5796 1 6101 6102
5797 1 6102 6103
5798 1 6103 6104
5799 1 6104 6105
5800 1 6105 6106
5801 1 6106 6107
5802 1 6107 6108
5803 1 6108 6109
5804 1 6109 6110
5805 1 6110 6111
5806 1 6111 6112
5807 1 6112 6113
5808 1 6113 6114
5809 1 6114 6115
5810 1 6115 6116
5811 1 6116 6117
5812 1 6117 6118
5813 1 6118 6119
5814 1 6119 6120
5815 1 6121 6122
5816 1 6122 6123
5817 1 6123 6124
5818 1 6124 6125
5819 1 6125 6126
5820 1 6126 6127
5821 1 6127 6128
5822 1 6128 6129
5823 1 6129 6130
5824 1 6130 6131
5825 1 6131 6132
5826 1 6132 6133
5827 1 6133 6134
5828 1 6134 6135
5829 1 6135 6136
5830 1 6136 6137
5831 1 6137 6138
5832 1 6138 6139
5833 1 6139 6140
5834 1 6141 6142
5835 1 6142 6143
5836 1 6143 6144
5837 1 6144 6145
5838 1 6145 6146
5839 1 6146 6147
5840 1 6147 6148
5841 1 6148 6149
5842 1 6149 6150
5843 1 6150 6151
5844 1 6151 6152
5845 1 6152 6153
5846 1 6153 6154
5847 1 6154 6155
5848 1 6155 6156
5849 1 6156 6157
5850 1 6157 6158
5851 1 6158 6159
5852 1 6159 6160
5853 1 6161 6162
5854 1 6162 6163
5855 1 6163 6164
5856 1 6164 6165
5857 1 6165 6166
5858 1 6166 6167
5859 1 6167 6168
5860 1 6168 6169
5861 1 6169 6170
5862 1 6170 6171
5863 1 6171 6172
5864 1 6172 6173
5865 1 6173 6174
5866 1 6174 6175
5867 1 6175 6176
5868 1 6176 6177
5869 1 6177 6178
5870 1 6178 6179
5871 1 6179 6180
5872 1 6181 6182
5873 1 6182 6183
5874 1 6183 6184
5875 1 6184 6185
5876 1 6185 6186
5877 1 6186 6187
5878 1 6187 6188
5879 1 6188 6189
5880 1 6189 6190
5881 1 6190 6191
5882 1 6191 6192
5883 1 6192 6193
5884 1 6193 6194
5885 1 6194 6195
5886 1 6195 6196
5887 1 6196 6197
5888 1 6197 6198
5889 1 6198 6199
5890 1 6199 6200
5891 1 6201 6202
5892 1 6202 6203
5893 1 6203 6204
5894 1 6204 6205
5895 1 6205 6206
5896 1 6206 6207
5897 1 6207 6208
5898 1 6208 6209
5899 1 6209 6210
5900 1 6210 6211
5901 1 6211 6212
5902 1 6212 6213
5903 1 6213 6214
5904 1 6214 6215
5905 1 6215 6216
5906 1 6216 6217
5907 1 6217 6218
5908 1 6218 6219
5909 1 6219 6220
5910 1 6221 6222
5911 1 6222 6223
5912 1 6223 6224
5913 1 6224 6225
5914 1 6225 6226
5915 1 6226 6227
5916 1 6227 6228
5917 1 6228 6229
5918 1 6229 6230
5919 1 6230 6231
5920 1 6231 6232
5921 1 6232 6233
5922 1 6233 6234
5923 1 6234 6235
5924 1 6235 6236
5925 1 6236 6237
5926 1 6237 6238
5927 1 6238 6239
5928 1 6239 6240
5929 1 6241 6242
5930 1 6242 6243
5931 1 6243 6244
5932 1 6244 6245
5933 1 6245 6246
5934 1 6246 6247
5935 1 6247 6248
5936 1 6248 6249
5937 1 6249 6250
5938 1 6250 6251
5939 1 6251 6252
5940 1 6252 6253
5941 1 6253 6254
5942 1 6254 6255
5943 1 6255 6256
5944 1 6256 6257
5945 1 6257 6258
5946 1 6258 6259
5947 1 6259 6260
5948 1 6261 6262
5949 1 6262 6263
5950 1 6263 6264
5951 1 6264 6265
5952 1 6265 6266
5953 1 6266 6267
5954 1 6267 6268
5955 1 6268 6269
5956 1 6269 6270
5957 1 6270 6271
5958 1 6271 6272
5959 1 6272 6273
5960 1 6273 6274
5961 1 6274 6275
5962 1 6275 6276
5963 1 6276 6277
5964 1 6277 6278
5965 1 6278 6279
5966 1 6279 6280
5967 1 6281 6282
5968 1 6282 6283
5969 1 6283 6284
5970 1 6284 6285
5971 1 6285 6286
5972 1 6286 6287
5973 1 6287 6288
5974 1 6288 6289
5975 1 6289 6290
5976 1 6290 6291
5977 1 6291 6292
5978 1 6292 6293
5979 1 6293 6294
5980 1 6294 6295
5981 1 6295 6296
5982 1 6296 6297
5983 1 6297 6298
5984 1 6298 6299
5985 1 6299 6300
5986 1 6301 6302
5987 1 6302 6303
5988 1 6303 6304
5989 1 6304 6305
5990 1 6305 6306
5991 1 6306 6307
5992 1 6307 6308
5993 1 6308 6309
5994 1 6309 6310
5995 1 6310 6311
5996 1 6311 6312
5997 1 6312 6313
5998 1 6313 6314
5999 1 6314 6315
6000 1 6315 6316
6001 1 6316 6317
6002 1 6317 6318
6003 1 6318 6319
6004 1 6319 6320
6005 1 6321 6322
6006 1 6322 6323
6007 1 6323 6324
6008 1 6324 6325
6009 1 6325 6326
6010 1 6326 6327
6011 1 6327 6328
6012 1 6328 6329
6013 1 6329 6330
6014 1 6330 6331
6015 1 6331 6332
6016 1 6332 6333
6017 1 6333 6334
6018 1 6334 6335
6019 1 6335 6336
6020 1 6336 6337
6021 1 6337 6338
6022 1 6338 6339
6023 1 6339 6340
6024 1 6341 6342
6025 1 6342 6343
6026 1 6343 6344
6027 1 6344 6345
6028 1 6345 6346
6029 1 6346 6347
6030 1 6347 6348
6031 1 6348 6349
6032 1 6349 6350
6033 1 6350 6351
6034 1 6351 6352
6035 1 6352 6353
6036 1 6353 6354
6037 1 6354 6355
6038 1 6355 6356
6039 1 6356 6357
6040 1 6357 6358
6041 1 6358 6359
6042 1 6359 6360
6043 1 6361 6362
6044 1 6362 6363
6045 1 6363 6364
6046 1 6364 6365
6047 1 6365 6366
6048 1 6366 6367
6049 1 6367 6368
6050 1 6368 6369
6051 1 6369 6370
6052 1 6370 6371
6053 1 6371 6372
6054 1 6372 6373
6055 1 6373 6374
6056 1 6374 6375
6057 1 6375 6376
6058 1 6376 6377
6059 1 6377 6378
6060 1 6378 6379
6061 1 6379 6380
6062 1 6381 6382
6063 1 6382 6383
6064 1 6383 6384
6065 1 6384 6385
6066 1 6385 6386
6067 1 6386 6387
6068 1 6387 6388
6069 1 6388 6389
6070 1 6389 6390
6071 1 6390 6391
6072 1 6391 6392
6073 1 6392 6393
6074 1 6393 6394
6075 1 6394 6395
6076 1 6395 6396
6077 1 6396 6397
6078 1 6397 6398
6079 1 6398 6399
6080 1 6399 6400
6081 1 6401 6402
6082 1 6402 6403
6083 1 6403 6404
6084 1 6404 6405
6085 1 6405 6406
6086 1 6406 6407
6087 1 6407 6408
6088 1 6408 6409
6089 1 6409 6410
6090 1 6410 6411
6091 1 6411 6412
6092 1 6412 6413
6093 1 6413 6414
6094 1 6414 6415
6095 1 6415 6416
6096 1 6416 6417
6097 1 6417 6418
6098 1 6418 6419
6099 1 6419 6420
6100 1 6421 6422
6101 1 6422 6423
6102 1 6423 6424
6103 1 6424 6425
6104 1 6425 6426
6105 1 6426 6427
6106 1 6427 6428
6107 1 6428 6429
6108 1 6429 6430
6109 1 6430 6431
6110 1 6431 6432
6111 1 6432 6433
6112 1 6433 6434
6113 1 6434 6435
6114 1 6435 6436
6115 1 6436 6437
6116 1 6437 6438
6117 1 6438 6439
6118 1 6439 6440
6119 1 6441 6442
6120 1 6442 6443
6121 1 6443 6444
6122 1 6444 6445
6123 1 6445 6446
6124 1 6446 6447
6125 1 6447 6448
6126 1 6448 6449
6127 1 6449 6450
6128 1 6450 6451
6129 1 6451 6452
6130 1 6452 6453
6131 1 6453 6454
6132 1 6454 6455
6133 1 6455 6456
6134 1 6456 6457
6135 1 6457 6458
6136 1 6458 6459
6137 1 6459 6460
6138 1 6461 6462
6139 1 6462 6463
6140 1 6463 6464
6141 1 6464 6465
6142 1 6465 6466
6143 1 6466 6467
6144 1 6467 6468
6145 1 6468 6469
6146 1 6469 6470
6147 1 6470 6471
6148 1 6471 6472
6149 1 6472 6473
6150 1 6473 6474
6151 1 6474 6475
6152 1 6475 6476
6153 1 6476 6477
6154 1 6477 6478
6155 1 6478 6479
6156 1 6479 6480
6157 1 6481 6482
6158 1 6482 6483
6159 1 6483 6484
6160 1 6484 6485
6161 1 6485 6486
6162 1 6486 6487
6163 1 6487 6488
6164 1 6488 6489
6165 1 6489 6490
6166 1 6490 6491
6167 1 6491 6492
6168 1 6492 6493
6169 1 6493 6494
6170 1 6494 6495
6171 1 6495 6496
6172 1 6496 6497
6173 1 6497 6498
6174 1 6498 6499
6175 1 6499 6500
6176 1 6501 6502
6177 1 6502 6503
6178 1 6503 6504
6179 1 6504 6505
6180 1 6505 6506
6181 1 6506 6507
6182 1 6507 6508
6183 1 6508 6509
6184 1 6509 6510
6185 1 6510 6511
6186 1 6511 6512
6187 1 6512 6513
6188 1 6513 6514
6189 1 6514 6515
6190 1 6515 6516
6191 1 6516 6517
6192 1 6517 6518
6193 1 6518 6519
6194 1 6519 6520
6195 1 6521 6522
6196 1 6522 6523
6197 1 6523 6524
6198 1 6524 6525
6199 1 6525 6526
6200 1 6526 6527
6201 1 6527 6528
6202 1 6528 6529
6203 1 6529 6530
6204 1 6530 6531
6205 1 6531 6532
6206 1 6532 6533
6207 1 6533 6534
6208 1 6534 6535
6209 1 6535 6536
6210 1 6536 6537
6211 1 6537 6538
6212 1 6538 6539
6213 1 6539 6540
6214 1 6541 6542
6215 1 6542 6543
6216 1 6543 6544
6217 1 6544 6545
6218 1 6545 6546
6219 1 6546 6547
6220 1 6547 6548
6221 1 6548 6549
6222 1 6549 6550
6223 1 6550 6551
6224 1 6551 6552
6225 1 6552 6553
6226 1 6553 6554
6227 1 6554 6555
6228 1 6555 6556
6229 1 6556 6557
6230 1 6557 6558
6231 1 6558 6559
6232 1 6559 6560
6233 1 6561 6562
6234 1 6562 6563
6235 1 6563 6564
6236 1 6564 6565
6237 1 6565 6566
6238 1 6566 6567
6239 1 6567 6568
6240 1 6568 6569
6241 1 6569 6570
6242 1 6570 6571
6243 1 6571 6572
6244 1 6572 6573
6245 1 6573 6574
6246 1 6574 6575
6247 1 6575 6576
6248 1 6576 6577
6249 1 6577 6578
6250 1 6578 6579
6251 1 6579 6580
6252 1 6581 6582
6253 1 6582 6583
6254 1 6583 6584
6255 1 6584 6585
6256 1 6585 6586
6257 1 6586 6587
6258 1 6587 6588
6259 1 6588 6589
6260 1 6589 6590
6261 1 6590 6591
6262 1 6591 6592
6263 1 6592 6593
6264 1 6593 6594
6265 1 6594 6595
6266 1 6595 6596
6267 1 6596 6597
6268 1 6597 6598
6269 1 6598 6599
6270 1 6599 6600
6271 1 6601 6602
6272 1 6602 6603
6273 1 6603 6604
6274 1 6604 6605
6275 1 6605 6606
6276 1 6606 6607
6277 1 6607 6608
6278 1 6608 6609
6279 1 6609 6610
6280 1 6610 6611
6281 1 6611 6612
6282 1 6612 6613
6283 1 6613 6614
6284 1 6614 6615
6285 1 6615 6616
6286 1 6616 6617
6287 1 6617 6618
6288 1 6618 6619
6289 1 6619 6620
6290 1 6621 6622
6291 1 6622 6623
6292 1 6623 6624
6293 1 6624 6625
6294 1 6625 6626
6295 1 6626 6627
6296 1 6627 6628
6297 1 6628 6629
6298 1 6629 6630
6299 1 6630 6631
6300 1 6631 6632
6301 1 6632 6633
6302 1 6633 6634
6303 1 6634 6635
6304 1 6635 6636
6305 1 6636 6637
6306 1 6637 6638
6307 1 6638 6639
6308 1 6639 6640
6309 1 6641 6642
6310 1 6642 6643
6311 1 6643 6644
6312 1 6644 6645
6313 1 6645 6646
6314 1 6646 6647
6315 1 6647 6648
6316 1 6648 6649
6317 1 6649 6650
6318 1 6650 6651
6319 1 6651 6652
6320 1 6652 6653
6321 1 6653 6654
6322 1 6654 6655
6323 1 6655 6656
6324 1 6656 6657
6325 1 6657 6658
6326 1 6658 6659
6327 1 6659 6660
6328 1 6661 6662
6329 1 6662 6663
6330 1 6663 6664
6331 1 6664 6665
6332 1 6665 6666
6333 1 6666 6667
6334 1 6667 6668
6335 1 6668 6669
6336 1 6669 6670
6337 1 6670 6671
6338 1 6671 6672
6339 1 6672 6673
6340 1 6673 6674
6341 1 6674 6675
6342 1 6675 6676
6343 1 6676 6677
6344 1 6677 6678
6345 1 6678 6679
6346 1 6679 6680
6347 1 6681 6682
6348 1 6682 6683
6349 1 6683 6684
6350 1 6684 6685
6351 1 6685 6686
6352 1 6686 6687
6353 1 6687 6688
6354 1 6688 6689
6355 1 6689 6690
6356 1 6690 6691
6357 1 6691 6692
6358 1 6692 6693
6359 1 6693 6694
6360 1 6694 6695
6361 1 6695 6696
6362 1 6696 6697
6363 1 6697 6698
6364 1 6698 6699
6365 1 6699 6700
6366 1 6701 6702
6367 1 6702 6703
6368 1 6703 6704
6369 1 6704 6705
6370 1 6705 6706
6371 1 6706 6707
6372 1 6707 6708
6373 1 6708 6709
6374 1 6709 6710
6375 1 6710 6711
6376 1 6711 6712
6377 1 6712 6713
6378 1 6713 6714
6379 1 6714 6715
6380 1 6715 6716
6381 1 6716 6717
6382 1 6717 6718
6383 1 6718 6719
6384 1 6719 6720
6385 1 6721 6722
6386 1 6722 6723
6387 1 6723 6724
6388 1 6724 6725
6389 1 6725 6726
6390 1 6726 6727
6391 1 6727 6728
6392 1 6728 6729
6393 1 6729 6730
6394 1 6730 6731
6395 1 6731 6732
6396 1 6732 6733
6397 1 6733 6734
6398 1 6734 6735
6399 1 6735 6736
6400 1 6736 6737
6401 1 6737 6738
6402 1 6738 6739
6403 1 6739 6740
6404 1 6741 6742
6405 1 6742 6743
6406 1 6743 6744
6407 1 6744 6745
6408 1 6745 6746
6409 1 6746 6747
6410 1 6747 6748
6411 1 6748 6749
6412 1 6749 6750
6413 1 6750 6751
6414 1 6751 6752
6415 1 6752 6753
6416 1 6753 6754
6417 1 6754 6755
6418 1 6755 6756
6419 1 6756 6757
6420 1 6757 6758
6421 1 6758 6759
6422 1 6759 6760
6423 1 6761 6762
6424 1 6762 6763
6425 1 6763 6764
6426 1 6764 6765
6427 1 6765 6766
6428 1 6766 6767
6429 1 6767 6768
6430 1 6768 6769
6431 1 6769 6770
6432 1 6770 6771
6433 1 6771 6772
6434 1 6772 6773
6435 1 6773 6774
6436 1 6774 6775
6437 1 6775 6776
6438 1 6776 6777
6439 1 6777 6778
6440 1 6778 6779
6441 1 6779 6780
6442 1 6781 6782
6443 1 6782 6783
6444 1 6783 6784
6445 1 6784 6785
6446 1 6785 6786
6447 1 6786 6787
6448 1 6787 6788
6449 1 6788 6789
6450 1 6789 6790
6451 1 6790 6791
6452 1 6791 6792
6453 1 6792 6793
6454 1 6793 6794
6455 1 6794 6795
6456 1 6795 6796
6457 1 6796 6797
6458 1 6797 6798
6459 1 6798 6799
6460 1 6799 6800
6461 1 6801 6802
6462 1 6802 6803
6463 1 6803 6804
6464 1 6804 6805
6465 1 6805 6806
6466 1 6806 6807
6467 1 6807 6808
6468 1 6808 6809
6469 1 6809 6810
6470 1 6810 6811
6471 1 6811 6812
6472 1 6812 6813
6473 1 6813 6814
6474 1 6814 6815
6475 1 6815 6816
6476 1 6816 6817
6477 1 6817 6818
6478 1 6818 6819
6479 1 6819 6820
6480 1 6821 6822
6481 1 6822 6823
6482 1 6823 6824
6483 1 6824 6825
6484 1 6825 6826
6485 1 6826 6827
6486 1 6827 6828
6487 1 6828 6829
6488 1 6829 6830
6489 1 6830 6831
6490 1 6831 6832
6491 1 6832 6833
6492 1 6833 6834
6493 1 6834 6835
6494 1 6835 6836
6495 1 6836 6837
6496 1 6837 6838
6497 1 6838 6839
6498 1 6839 6840
6499 1 6841 6842
6500 1 6842 6843
6501 1 6843 6844
6502 1 6844 6845
6503 1 6845 6846
6504 1 6846 6847
6505 1 6847 6848
6506 1 6848 6849
6507 1 6849 6850
6508 1 6850 6851
6509 1 6851 6852
6510 1 6852 6853
6511 1 6853 6854
6512 1 6854 6855
6513 1 6855 6856
6514 1 6856 6857
6515 1 6857 6858
6516 1 6858 6859
6517 1 6859 6860
6518 1 6861 6862
6519 1 6862 6863
6520 1 6863 6864
6521 1 6864 6865
6522 1 6865 6866
6523 1 6866 6867
6524 1 6867 6868
6525 1 6868 6869
6526 1 6869 6870
6527 1 6870 6871
6528 1 6871 6872
6529 1 6872 6873
6530 1 6873 6874
6531 1 6874 6875
6532 1 6875 6876
6533 1 6876 6877
6534 1 6877 6878
6535 1 6878 6879
6536 1 6879 6880
6537 1 6881 6882
6538 1 6882 6883
6539 1 6883 6884
6540 1 6884 6885
6541 1 6885 6886
6542 1 6886 6887
6543 1 6887 6888
6544 1 6888 6889
6545 1 6889 6890
6546 1 6890 6891
6547 1 6891 6892
6548 1 6892 6893
6549 1 6893 6894
6550 1 6894 6895
6551 1 6895 6896
6552 1 6896 6897
6553 1 6897 6898
6554 1 6898 6899
6555 1 6899 6900
6556 1 6901 6902
6557 1 6902 6903
6558 1 6903 6904
6559 1 6904 6905
6560 1 6905 6906
6561 1 6906 6907
6562 1 6907 6908
6563 1 6908 6909
6564 1 6909 6910
6565 1 6910 6911
6566 1 6911 6912
6567 1 6912 6913
6568 1 6913 6914
6569 1 6914 6915
6570 1 6915 6916
6571 1 6916 6917
6572 1 6917 6918
6573 1 6918 6919
6574 1 6919 6920
6575 1 6921 6922
6576 1 6922 6923
6577 1 6923 6924
6578 1 6924 6925
6579 1 6925 6926
6580 1 6926 6927
6581 1 6927 6928
6582 1 6928 6929
6583 1 6929 6930
6584 1 6930 6931
6585 1 6931 6932
6586 1 6932 6933
6587 1 6933 6934
6588 1 6934 6935
6589 1 6935 6936
6590 1 6936 6937
6591 1 6937 6938
6592 1 6938 6939
6593 1 6939 6940
6594 1 6941 6942
6595 1 6942 6943
6596 1 6943 6944
6597 1 6944 6945
6598 1 6945 6946
6599 1 6946 6947
6600 1 6947 6948
6601 1 6948 6949
6602 1 6949 6950
6603 1 6950 6951
6604 1 6951 6952
6605 1 6952 6953
6606 1 6953 6954
6607 1 6954 6955
6608 1 6955 6956
6609 1 6956 6957
6610 1 6957 6958
6611 1 6958 6959
6612 1 6959 6960
6613 1 6961 6962
6614 1 6962 6963
6615 1 6963 6964
6616 1 6964 6965
6617 1 6965 6966
6618 1 6966 6967
6619 1 6967 6968
6620 1 6968 6969
6621 1 6969 6970
6622 1 6970 6971
6623 1 6971 6972
6624 1 6972 6973
6625 1 6973 6974
6626 1 6974 6975
6627 1 6975 6976
6628 1 6976 6977
6629 1 6977 6978
6630 1 6978 6979
6631 1 6979 6980
6632 1 6981 6982
6633 1 6982 6983
6634 1 6983 6984
6635 1 6984 6985
6636 1 6985 6986
6637 1 6986 6987
6638 1 6987 6988
6639 1 6988 6989
6640 1 6989 6990
6641 1 6990 6991
6642 1 6991 6992
6643 1 6992 6993
6644 1 6993 6994
6645 1 6994 6995
6646 1 6995 6996
6647 1 6996 6997
6648 1 6997 6998
6649 1 6998 6999
6650 1 6999 7000
6651 1 7001 7002
6652 1 7002 7003
6653 1 7003 7004
6654 1 7004 7005
6655 1 7005 7006
6656 1 7006 7007
6657 1 7007 7008
6658 1 7008 7009
6659 1 7009 7010
6660 1 7010 7011
6661 1 7011 7012
6662 1 7012 7013
6663 1 7013 7014
6664 1 7014 7015
6665 1 7015 7016
6666 1 7016 7017
6667 1 7017 7018
6668 1 7018 7019
6669 1 7019 7020
6670 1 7021 7022
6671 1 7022 7023
6672 1 7023 7024
6673 1 7024 7025
6674 1 7025 7026
6675 1 7026 7027
6676 1 7027 7028
6677 1 7028 7029
6678 1 7029 7030
6679 1 7030 7031
6680 1 7031 7032
6681 1 7032 7033
6682 1 7033 7034
6683 1 7034 7035
6684 1 7035 7036
6685 1 7036 7037
6686 1 7037 7038
6687 1 7038 7039
6688 1 7039 7040
6689 1 7041 7042
6690 1 7042 7043
6691 1 7043 7044
6692 1 7044 7045
6693 1 7045 7046
6694 1 7046 7047
6695 1 7047 7048
6696 1 7048 7049
6697 1 7049 7050
6698 1 7050 7051
6699 1 7051 7052
6700 1 7052 7053
6701 1 7053 7054
6702 1 7054 7055
6703 1 7055 7056
6704 1 7056 7057
6705 1 7057 7058
6706 1 7058 7059
6707 1 7059 7060
6708 1 7061 7062
6709 1 7062 7063
6710 1 7063 7064
6711 1 7064 7065
6712 1 7065 7066
6713 1 7066 7067
6714 1 7067 7068
6715 1 7068 7069
6716 1 7069 7070
6717 1 7070 7071
6718 1 7071 7072
6719 1 7072 7073
6720 1 7073 7074
6721 1 7074 7075
6722 1 7075 7076
6723 1 7076 7077
6724 1 7077 7078
6725 1 7078 7079
6726 1 7079 7080
6727 1 7081 7082
6728 1 7082 7083
6729 1 7083 7084
6730 1 7084 7085
6731 1 7085 7086
6732 1 7086 7087
6733 1 7087 7088
6734 1 7088 7089
6735 1 7089 7090
6736 1 7090 7091
6737 1 7091 7092
6738 1 7092 7093
6739 1 7093 7094
6740 1 7094 7095
6741 1 7095 7096
6742 1 7096 7097
6743 1 7097 7098
6744 1 7098 7099
6745 1 7099 7100
6746 1 7101 7102
6747 1 7102 7103
6748 1 7103 7104
6749 1 7104 7105
6750 1 7105 7106
6751 1 7106 7107
6752 1 7107 7108
6753 1 7108 7109
6754 1 7109 7110
6755 1 7110 7111
6756 1 7111 7112
6757 1 7112 7113
6758 1 7113 7114
6759 1 7114 7115
6760 1 7115 7116
6761 1 7116 7117
6762 1 7117 7118
6763 1 7118 7119
6764 1 7119 7120
6765 1 7121 7122
6766 1 7122 7123
6767 1 7123 7124
6768 1 7124 7125
6769 1 7125 7126
6770 1 7126 7127
6771 1 7127 7128
6772 1 7128 7129
6773 1 7129 7130
6774 1 7130 7131
6775 1 7131 7132
6776 1 7132 7133
6777 1 7133 7134
6778 1 7134 7135
6779 1 7135 7136
6780 1 7136 7137
6781 1 7137 7138
6782 1 7138 7139
6783 1 7139 7140
6784 1 7141 7142
6785 1 7142 7143
6786 1 7143 7144
6787 1 7144 7145
6788 1 7145 7146
6789 1 7146 7147
6790 1 7147 7148
6791 1 7148 7149
6792 1 7149 7150
6793 1 7150 7151
6794 1 7151 7152
6795 1 7152 7153
6796 1 7153 7154
6797 1 7154 7155
6798 1 7155 7156
6799 1 7156 7157
6800 1 7157 7158
6801 1 7158 7159
6802 1 7159 7160
6803 1 7161 7162
6804 1 7162 7163
6805 1 7163 7164
6806 1 7164 7165
6807 1 7165 7166
6808 1 7166 7167
6809 1 7167 7168
6810 1 7168 7169
6811 1 7169 7170
6812 1 7170 7171
6813 1 7171 7172
6814 1 7172 7173
6815 1 7173 7174
6816 1 7174 7175
6817 1 7175 7176
6818 1 7176 7177
6819 1 7177 7178
6820 1 7178 7179
6821 1 7179 7180
6822 1 7181 7182
6823 1 7182 7183
6824 1 7183 7184
6825 1 7184 7185
6826 1 7185 7186
6827 1 7186 7187
6828 1 7187 7188
6829 1 7188 7189
6830 1 7189 7190
6831 1 7190 7191
6832 1 7191 7192
6833 1 7192 7193
6834 1 7193 7194
6835 1 7194 7195
6836 1 7195 7196
6837 1 7196 7197
6838 1 7197 7198
6839 1 7198 7199
6840 1 7199 7200
6841 1 7201 7202
6842 1 7202 7203
6843 1 7203 7204
6844 1 7204 7205
6845 1 7205 7206
6846 1 7206 7207
6847 1 7207 7208
6848 1 7208 7209
6849 1 7209 7210
6850 1 7210 7211
6851 1 7211 7212
6852 1 7212 7213
6853 1 7213 7214
6854 1 7214 7215
6855 1 7215 7216
6856 1 7216 7217
6857 1 7217 7218
6858 1 7218 7219
6859 1 7219 7220
6860 1 7221 7222
6861 1 7222 7223
6862 1 7223 7224
6863 1 7224 7225
6864 1 7225 7226
6865 1 7226 7227
6866 1 7227 7228
6867 1 7228 7229
6868 1 7229 7230
6869 1 7230 7231
6870 1 7231 7232
6871 1 7232 7233
6872 1 7233 7234
6873 1 7234 7235
6874 1 7235 7236
6875 1 7236 7237
6876 1 7237 7238
6877 1 7238 7239
6878 1 7239 7240
6879 1 7241 7242
6880 1 7242 7243
6881 1 7243 7244
6882 1 7244 7245
6883 1 7245 7246
6884 1 7246 7247
6885 1 7247 7248
6886 1 7248 7249
6887 1 7249 7250
6888 1 7250 7251
6889 1 7251 7252
6890 1 7252 7253
6891 1 7253 7254
6892 1 7254 7255
6893 1 7255 7256
6894 1 7256 7257
6895 1 7257 7258
6896 1 7258 7259
6897 1 7259 7260
6898 1 7261 7262
6899 1 7262 7263
6900 1 7263 7264
6901 1 7264 7265
6902 1 7265 7266
6903 1 7266 7267
6904 1 7267 7268
6905 1 7268 7269
6906 1 7269 7270
6907 1 7270 7271
6908 1 7271 7272
6909 1 7272 7273
6910 1 7273 7274
6911 1 7274 7275
6912 1 7275 7276
6913 1 7276 7277
6914 1 7277 7278
6915 1 7278 7279
6916 1 7279 7280
6917 1 7281 7282
6918 1 7282 7283
6919 1 7283 7284
6920 1 7284 7285
6921 1 7285 7286
6922 1 7286 7287
6923 1 7287 7288
6924 1 7288 7289
6925 1 7289 7290
6926 1 7290 7291
6927 1 7291 7292
6928 1 7292 7293
6929 1 7293 7294
6930 1 7294 7295
6931 1 7295 7296
6932 1 7296 7297
6933 1 7297 7298
6934 1 7298 7299
6935 1 7299 7300
6936 1 7301 7302
6937 1 7302 7303
6938 1 7303 7304
6939 1 7304 7305
6940 1 7305 7306
6941 1 7306 7307
6942 1 7307 7308
6943 1 7308 7309
6944 1 7309 7310
6945 1 7310 7311
6946 1 7311 7312
6947 1 7312 7313
6948 1 7313 7314
6949 1 7314 7315
6950 1 7315 7316
6951 1 7316 7317
6952 1 7317 7318
6953 1 7318 7319
6954 1 7319 7320
6955 1 7321 7322
6956 1 7322 7323
6957 1 7323 7324
6958 1 7324 7325
6959 1 7325 7326
6960 1 7326 7327
6961 1 7327 7328
6962 1 7328 7329
6963 1 7329 7330
6964 1 7330 7331
6965 1 7331 7332
6966 1 7332 7333
6967 1 7333 7334
6968 1 7334 7335
6969 1 7335 7336
6970 1 7336 7337
6971 1 7337 7338
6972 1 7338 7339
6973 1 7339 7340
6974 1 7341 7342
6975 1 7342 7343
6976 1 7343 7344
6977 1 7344 7345
6978 1 7345 7346
6979 1 7346 7347
6980 1 7347 7348
6981 1 7348 7349
6982 1 7349 7350
6983 1 7350 7351
6984 1 7351 7352
6985 1 7352 7353
6986 1 7353 7354
6987 1 7354 7355
6988 1 7355 7356
6989 1 7356 7357
6990 1 7357 7358
6991 1 7358 7359
6992 1 7359 7360
6993 1 7361 7362
6994 1 7362 7363
6995 1 7363 7364
6996 1 7364 7365
6997 1 7365 7366
6998 1 7366 7367
6999 1 7367 7368
7000 1 7368 7369
7001 1 7369 7370
7002 1 7370 7371
7003 1 7371 7372
7004 1 7372 7373
7005 1 7373 7374
7006 1 7374 7375
7007 1 7375 7376
7008 1 7376 7377
7009 1 7377 7378
7010 1 7378 7379
7011 1 7379 7380
7012 1 7381 7382
7013 1 7382 7383
7014 1 7383 7384
7015 1 7384 7385
7016 1 7385 7386
7017 1 7386 7387
7018 1 7387 7388
7019 1 7388 7389
7020 1 7389 7390
7021 1 7390 7391
7022 1 7391 7392
7023 1 7392 7393
7024 1 7393 7394
7025 1 7394 7395
7026 1 7395 7396
7027 1 7396 7397
7028 1 7397 7398
7029 1 7398 7399
7030 1 7399 7400
7031 1 7401 7402
7032 1 7402 7403
7033 1 7403 7404
7034 1 7404 7405
7035 1 7405 7406
7036 1 7406 7407
7037 1 7407 7408
7038 1 7408 7409
7039 1 7409 7410
7040 1 7410 7411
7041 1 7411 7412
7042 1 7412 7413
7043 1 7413 7414
7044 1 7414 7415
7045 1 7415 7416
7046 1 7416 7417
7047 1 7417 7418
7048 1 7418 7419
7049 1 7419 7420
7050 1 7421 7422
7051 1 7422 7423
7052 1 7423 7424
7053 1 7424 7425
7054 1 7425 7426
7055 1 7426 7427
7056 1 7427 7428
7057 1 7428 7429
7058 1 7429 7430
7059 1 7430 7431
7060 1 7431 7432
7061 1 7432 7433
7062 1 7433 7434
7063 1 7434 7435
7064 1 7435 7436
7065 1 7436 7437
7066 1 7437 7438
7067 1 7438 7439
7068 1 7439 7440
7069 1 7441 7442
7070 1 7442 7443
7071 1 7443 7444
7072 1 7444 7445
7073 1 7445 7446
7074 1 7446 7447
7075 1 7447 7448
7076 1 7448 7449
7077 1 7449 7450
7078 1 7450 7451
7079 1 7451 7452
7080 1 7452 7453
7081 1 7453 7454
7082 1 7454 7455
7083 1 7455 7456
7084 1 7456 7457
7085 1 7457 7458
7086 1 7458 7459
7087 1 7459 7460
7088 1 7461 7462
7089 1 7462 7463
7090 1 7463 7464
7091 1 7464 7465
7092 1 7465 7466
7093 1 7466 7467
7094 1 7467 7468
7095 1 7468 7469
7096 1 7469 7470
7097 1 7470 7471
7098 1 7471 7472
7099 1 7472 7473
7100 1 7473 7474
7101 1 7474 7475
7102 1 7475 7476
7103 1 7476 7477
7104 1 7477 7478
7105 1 7478 7479
7106 1 7479 7480
7107 1 7481 7482
7108 1 7482 7483
7109 1 7483 7484
7110 1 7484 7485
7111 1 7485 7486
7112 1 7486 7487
7113 1 7487 7488
7114 1 7488 7489
7115 1 7489 7490
7116 1 7490 7491
7117 1 7491 7492
7118 1 7492 7493
7119 1 7493 7494
7120 1 7494 7495
7121 1 7495 7496
7122 1 7496 7497
7123 1 7497 7498
7124 1 7498 7499
7125 1 7499 7500
7126 1 7501 7502
7127 1 7502 7503
7128 1 7503 7504
7129 1 7504 7505
7130 1 7505 7506
7131 1 7506 7507
7132 1 7507 7508
7133 1 7508 7509
7134 1 7509 7510
7135 1 7510 7511
7136 1 7511 7512
7137 1 7512 7513
7138 1 7513 7514
7139 1 7514 7515
7140 1 7515 7516
7141 1 7516 7517
7142 1 7517 7518
7143 1 7518 7519
7144 1 7519 7520
7145 1 7521 7522
7146 1 7522 7523
7147 1 7523 7524
7148 1 7524 7525
7149 1 7525 7526
7150 1 7526 7527
7151 1 7527 7528
7152 1 7528 7529
7153 1 7529 7530
7154 1 7530 7531
7155 1 7531 7532
7156 1 7532 7533
7157 1 7533 7534
7158 1 7534 7535
7159 1 7535 7536
7160 1 7536 7537
7161 1 7537 7538
7162 1 7538 7539
7163 1 7539 7540
7164 1 7541 7542
7165 1 7542 7543
7166 1 7543 7544
7167 1 7544 7545
7168 1 7545 7546
7169 1 7546 7547
7170 1 7547 7548
7171 1 7548 7549
7172 1 7549 7550
7173 1 7550 7551
7174 1 7551 7552
7175 1 7552 7553
7176 1 7553 7554
7177 1 7554 7555
7178 1 7555 7556
7179 1 7556 7557
7180 1 7557 7558
7181 1 7558 7559
7182 1 7559 7560
7183 1 7561 7562
7184 1 7562 7563
7185 1 7563 7564
7186 1 7564 7565
7187 1 7565 7566
7188 1 7566 7567
7189 1 7567 7568
7190 1 7568 7569
7191 1 7569 7570
7192 1 7570 7571
7193 1 7571 7572
7194 1 7572 7573
7195 1 7573 7574
7196 1 7574 7575
7197 1 7575 7576
7198 1 7576 7577
7199 1 7577 7578
7200 1 7578 7579
7201 1 7579 7580
7202 1 7581 7582
7203 1 7582 7583
7204 1 7583 7584
7205 1 7584 7585
7206 1 7585 7586
7207 1 7586 7587
7208 1 7587 7588
7209 1 7588 7589
7210 1 7589 7590
7211 1 7590 7591
7212 1 7591 7592
7213 1 7592 7593
7214 1 7593 7594
7215 1 7594 7595
7216 1 7595 7596
7217 1 7596 7597
7218 1 7597 7598
7219 1 7598 7599
7220 1 7599 7600
7221 1 7601 7602
7222 1 7602 7603
7223 1 7603 7604
7224 1 7604 7605
7225 1 7605 7606
7226 1 7606 7607
7227 1 7607 7608
7228 1 7608 7609
7229 1 7609 7610
7230 1 7610 7611
7231 1 7611 7612
7232 1 7612 7613
7233 1 7613 7614
7234 1 7614 7615
7235 1 7615 7616
7236 1 7616 7617
7237 1 7617 7618
7238 1 7618 7619
7239 1 7619 7620
7240 1 7621 7622
7241 1 7622 7623
7242 1 7623 7624
7243 1 7624 7625
7244 1 7625 7626
7245 1 7626 7627
7246 1 7627 7628
7247 1 7628 7629
7248 1 7629 7630
7249 1 7630 7631
7250 1 7631 7632
7251 1 7632 7633
7252 1 7633 7634
7253 1 7634 7635
7254 1 7635 7636
7255 1 7636 7637
7256 1 7637 7638
7257 1 7638 7639
7258 1 7639 7640
7259 1 7641 7642
7260 1 7642 7643
7261 1 7643 7644
7262 1 7644 7645
7263 1 7645 7646
7264 1 7646 7647
7265 1 7647 7648
7266 1 7648 7649
7267 1 7649 7650
7268 1 7650 7651
7269 1 7651 7652
7270 1 7652 7653
7271 1 7653 7654
7272 1 7654 7655
7273 1 7655 7656
7274 1 7656 7657
7275 1 7657 7658
7276 1 7658 7659
7277 1 7659 7660
7278 1 7661 7662
7279 1 7662 7663
7280 1 7663 7664
7281 1 7664 7665
7282 1 7665 7666
7283 1 7666 7667
7284 1 7667 7668
7285 1 7668 7669
7286 1 7669 7670
7287 1 7670 7671
7288 1 7671 7672
7289 1 7672 7673
7290 1 7673 7674
7291 1 7674 7675
7292 1 7675 7676
7293 1 7676 7677
7294 1 7677 7678
7295 1 7678 7679
7296 1 7679 7680
7297 1 7681 7682
7298 1 7682 7683
7299 1 7683 7684
7300 1 7684 7685
7301 1 7685 7686
7302 1 7686 7687
7303 1 7687 7688
7304 1 7688 7689
7305 1 7689 7690
7306 1 7690 7691
7307 1 7691 7692
7308 1 7692 7693
7309 1 7693 7694
7310 1 7694 7695
7311 1 7695 7696
7312 1 7696 7697
7313 1 7697 7698
7314 1 7698 7699
7315 1 7699 7700
7316 1 7701 7702
7317 1 7702 7703
7318 1 7703 7704
7319 1 7704 7705
7320 1 7705 7706
7321 1 7706 7707
7322 1 7707 7708
7323 1 7708 7709
7324 1 7709 7710
7325 1 7710 7711
7326 1 7711 7712
7327 1 7712 7713
7328 1 7713 7714
7329 1 7714 7715
7330 1 7715 7716
7331 1 7716 7717
7332 1 7717 7718
7333 1 7718 7719
7334 1 7719 7720
7335 1 7721 7722
7336 1 7722 7723
7337 1 7723 7724
7338 1 7724 7725
7339 1 7725 7726
7340 1 7726 7727
7341 1 7727 7728
7342 1 7728 7729
7343 1 7729 7730
7344 1 7730 7731
7345 1 7731 7732
7346 1 7732 7733
7347 1 7733 7734
7348 1 7734 7735
7349 1 7735 7736
7350 1 7736 7737
7351 1 7737 7738
7352 1 7738 7739
7353 1 7739 7740
7354 1 7741 7742
7355 1 7742 7743
7356 1 7743 7744
7357 1 7744 7745
7358 1 7745 7746
7359 1 7746 7747
7360 1 7747 7748
7361 1 7748 7749
7362 1 7749 7750
7363 1 7750 7751
7364 1 7751 7752
7365 1 7752 7753
7366 1 7753 7754
7367 1 7754 7755
7368 1 7755 7756
7369 1 7756 7757
7370 1 7757 7758
7371 1 7758 7759
7372 1 7759 7760
7373 1 7761 7762
7374 1 7762 7763
7375 1 7763 7764
7376 1 7764 7765
7377 1 7765 7766
7378 1 7766 7767
7379 1 7767 7768
7380 1 7768 7769
7381 1 7769 7770
7382 1 7770 7771
7383 1 7771 7772
7384 1 7772 7773
7385 1 7773 7774
7386 1 7774 7775
7387 1 7775 7776
7388 1 7776 7777
7389 1 7777 7778
7390 1 7778 7779
7391 1 7779 7780
7392 1 7781 7782
7393 1 7782 7783
7394 1 7783 7784
7395 1 7784 7785
7396 1 7785 7786
7397 1 7786 7787
7398 1 7787 7788
7399 1 7788 7789
7400 1 7789 7790
7401 1 7790 7791
7402 1 7791 7792
7403 1 7792 7793
7404 1 7793 7794
7405 1 7794 7795
7406 1 7795 7796
7407 1 7796 7797
7408 1 7797 7798
7409 1 7798 7799
7410 1 7799 7800
7411 1 7801 7802
7412 1 7802 7803
7413 1 7803 7804
7414 1 7804 7805
7415 1 7805 7806
7416 1 7806 7807
7417 1 7807 7808
7418 1 7808 7809
7419 1 7809 7810
7420 1 7810 7811
7421 1 7811 7812
7422 1 7812 7813
7423 1 7813 7814
7424 1 7814 7815
7425 1 7815 7816
7426 1 7816 7817
7427 1 7817 7818
7428 1 7818 7819
7429 1 7819 7820
7430 1 7821 7822
7431 1 7822 7823
7432 1 7823 7824
7433 1 7824 7825
7434 1 7825 7826
7435 1 7826 7827
7436 1 7827 7828
7437 1 7828 7829
7438 1 7829 7830
7439 1 7830 7831
7440 1 7831 7832
7441 1 7832 7833
7442 1 7833 7834
7443 1 7834 7835
7444 1 7835 7836
7445 1 7836 7837
7446 1 7837 7838
7447 1 7838 7839
7448 1 7839 7840
7449 1 7841 7842
7450 1 7842 7843
7451 1 7843 7844
7452 1 7844 7845
7453 1 7845 7846
7454 1 7846 7847
7455 1 7847 7848
7456 1 7848 7849
7457 1 7849 7850
7458 1 7850 7851
7459 1 7851 7852
7460 1 7852 7853
7461 1 7853 7854
7462 1 7854 7855
7463 1 7855 7856
7464 1 7856 7857
7465 1 7857 7858
7466 1 7858 7859
7467 1 7859 7860
7468 1 7861 7862
7469 1 7862 7863
7470 1 7863 7864
7471 1 7864 7865
7472 1 7865 7866
7473 1 7866 7867
7474 1 7867 7868
7475 1 7868 7869
7476 1 7869 7870
7477 1 7870 7871
7478 1 7871 7872
7479 1 7872 7873
7480 1 7873 7874
7481 1 7874 7875
7482 1 7875 7876
7483 1 7876 7877
7484 1 7877 7878
7485 1 7878 7879
7486 1 7879 7880
7487 1 7881 7882
7488 1 7882 7883
7489 1 7883 7884
7490 1 7884 7885
7491 1 7885 7886
7492 1 7886 7887
7493 1 7887 7888
7494 1 7888 7889
7495 1 7889 7890
7496 1 7890 7891
7497 1 7891 7892
7498 1 7892 7893
7499 1 7893 7894
7500 1 7894 7895
7501 1 7895 7896
7502 1 7896 7897
7503 1 7897 7898
7504 1 7898 7899
7505 1 7899 7900
7506 1 7901 7902
7507 1 7902 7903
7508 1 7903 7904
7509 1 7904 7905
7510 1 7905 7906
7511 1 7906 7907
7512 1 7907 7908
7513 1 7908 7909
7514 1 7909 7910
7515 1 7910 7911
7516 1 7911 7912
7517 1 7912 7913
7518 1 7913 7914
7519 1 7914 7915
7520 1 7915 7916
7521 1 7916 7917
7522 1 7917 7918
7523 1 7918 7919
7524 1 7919 7920
7525 1 7921 7922
7526 1 7922 7923
7527 1 7923 7924
7528 1 7924 7925
7529 1 7925 7926
7530 1 7926 7927
7531 1 7927 7928
7532 1 7928 7929
7533 1 7929 7930
7534 1 7930 7931
7535 1 7931 7932
7536 1 7932 7933
7537 1 7933 7934
7538 1 7934 7935
7539 1 7935 7936
7540 1 7936 7937
7541 1 7937 7938
7542 1 7938 7939
7543 1 7939 7940
7544 1 7941 7942
7545 1 7942 7943
7546 1 7943 7944
7547 1 7944 7945
7548 1 7945 7946
7549 1 7946 7947
7550 1 7947 7948
7551 1 7948 7949
7552 1 7949 7950
7553 1 7950 7951
7554 1 7951 7952
7555 1 7952 7953
7556 1 7953 7954
7557 1 7954 7955
7558 1 7955 7956
7559 1 7956 7957
7560 1 7957 7958
7561 1 7958 7959
7562 1 7959 7960
7563 1 7961 7962
7564 1 7962 7963
7565 1 7963 7964
7566 1 7964 7965
7567 1 7965 7966
7568 1 7966 7967
7569 1 7967 7968
7570 1 7968 7969
7571 1 7969 7970
7572 1 7970 7971
7573 1 7971 7972
7574 1 7972 7973
7575 1 7973 7974
7576 1 7974 7975
7577 1 7975 7976
7578 1 7976 7977
7579 1 7977 7978
7580 1 7978 7979
7581 1 7979 7980
7582 1 7981 7982
7583 1 7982 7983
7584 1 7983 7984
7585 1 7984 7985
7586 1 7985 7986
7587 1 7986 7987
7588 1 7987 7988
7589 1 7988 7989
7590 1 7989 7990
7591 1 7990 7991
7592 1 7991 7992
7593 1 7992 7993
7594 1 7993 7994
7595 1 7994 7995
7596 1 7995 7996
7597 1 7996 7997
7598 1 7997 7998
7599 1 7998 7999
7600 1 7999 8000
7601 1 8001 8002
7602 1 8002 8003
7603 1 8003 8004
7604 1 8004 8005
7605 1 8005 8006
7606 1 8006 8007
7607 1 8007 8008
7608 1 8008 8009
7609 1 8009 8010
7610 1 8010 8011
7611 1 8011 8012
7612 1 8012 8013
7613 1 8013 8014
7614 1 8014 8015
7615 1 8015 8016
7616 1 8016 8017
7617 1 8017 8018
7618 1 8018 8019
7619 1 8019 8020
7620 1 8021 8022
7621 1 8022 8023
7622 1 8023 8024
7623 1 8024 8025
7624 1 8025 8026
7625 1 8026 8027
7626 1 8027 8028
7627 1 8028 8029
7628 1 8029 8030
7629 1 8030 8031
7630 1 8031 8032
7631 1 8032 8033
7632 1 8033 8034
7633 1 8034 8035
7634 1 8035 8036
7635 1 8036 8037
7636 1 8037 8038
7637 1 8038 8039
7638 1 8039 8040
7639 1 8041 8042
7640 1 8042 8043
7641 1 8043 8044
7642 1 8044 8045
7643 1 8045 8046
7644 1 8046 8047
7645 1 8047 8048
7646 1 8048 8049
7647 1 8049 8050
7648 1 8050 8051
7649 1 8051 8052
7650 1 8052 8053
7651 1 8053 8054
7652 1 8054 8055
7653 1 8055 8056
7654 1 8056 8057
7655 1 8057 8058
7656 1 8058 8059
7657 1 8059 8060
7658 1 8061 8062
7659 1 8062 8063
7660 1 8063 8064
7661 1 8064 8065
7662 1 8065 8066
7663 1 8066 8067
7664 1 8067 8068
7665 1 8068 8069
7666 1 8069 8070
7667 1 8070 8071
7668 1 8071 8072
7669 1 8072 8073
7670 1 8073 8074
7671 1 8074 8075
7672 1 8075 8076
7673 1 8076 8077
7674 1 8077 8078
7675 1 8078 8079
7676 1 8079 8080
7677 1 8081 8082
7678 1 8082 8083
7679 1 8083 8084
7680 1 8084 8085
7681 1 8085 8086
7682 1 8086 8087
7683 1 8087 8088
7684 1 8088 8089
7685 1 8089 8090
7686 1 8090 8091
7687 1 8091 8092
7688 1 8092 8093
7689 1 8093 8094
7690 1 8094 8095
7691 1 8095 8096
7692 1 8096 8097
7693 1 8097 8098
7694 1 8098 8099
7695 1 8099 8100
7696 1 8101 8102
7697 1 8102 8103
7698 1 8103 8104
7699 1 8104 8105
7700 1 8105 8106
7701 1 8106 8107
7702 1 8107 8108
7703 1 8108 8109
7704 1 8109 8110
7705 1 8110 8111
7706 1 8111 8112
7707 1 8112 8113
7708 1 8113 8114
7709 1 8114 8115
7710 1 8115 8116
7711 1 8116 8117
7712 1 8117 8118
7713 1 8118 8119
7714 1 8119 8120
7715 1 8121 8122
7716 1 8122 8123
7717 1 8123 8124
7718 1 8124 8125
7719 1 8125 8126
7720 1 8126 8127
7721 1 8127 8128
7722 1 8128 8129
7723 1 8129 8130
7724 1 8130 8131
7725 1 8131 8132
7726 1 8132 8133
7727 1 8133 8134
7728 1 8134 8135
7729 1 8135 8136
7730 1 8136 8137
7731 1 8137 8138
7732 1 8138 8139
7733 1 8139 8140
7734 1 8141 8142
7735 1 8142 8143
7736 1 8143 8144
7737 1 8144 8145
7738 1 8145 8146
7739 1 8146 8147
7740 1 8147 8148
7741 1 8148 8149
7742 1 8149 8150
7743 1 8150 8151
7744 1 8151 8152
7745 1 8152 8153
7746 1 8153 8154
7747 1 8154 8155
7748 1 8155 8156
7749 1 8156 8157
7750 1 8157 8158
7751 1 8158 8159
7752 1 8159 8160
7753 1 8161 8162
7754 1 8162 8163
7755 1 8163 8164
7756 1 8164 8165
7757 1 8165 8166
7758 1 8166 8167
7759 1 8167 8168
7760 1 8168 8169
7761 1 8169 8170
7762 1 8170 8171
7763 1 8171 8172
7764 1 8172 8173
7765 1 8173 8174
7766 1 8174 8175
7767 1 8175 8176
7768 1 8176 8177
7769 1 8177 8178
7770 1 8178 8179
7771 1 8179 8180
7772 1 8181 8182
7773 1 8182 8183
7774 1 8183 8184
7775 1 8184 8185
7776 1 8185 8186
7777 1 8186 8187
7778 1 8187 8188
7779 1 8188 8189
7780 1 8189 8190
7781 1 8190 8191
7782 1 8191 8192
7783 1 8192 8193
7784 1 8193 8194
7785 1 8194 8195
7786 1 8195 8196
7787 1 8196 8197
7788 1 8197 8198
7789 1 8198 8199
7790 1 8199 8200
7791 1 8201 8202
7792 1 8202 8203
7793 1 8203 8204
7794 1 8204 8205
7795 1 8205 8206
7796 1 8206 8207
7797 1 8207 8208
7798 1 8208 8209
7799 1 8209 8210
7800 1 8210 8211
7801 1 8211 8212
7802 1 8212 8213
7803 1 8213 8214
7804 1 8214 8215
7805 1 8215 8216
7806 1 8216 8217
7807 1 8217 8218
7808 1 8218 8219
7809 1 8219 8220
7810 1 8221 8222
7811 1 8222 8223
7812 1 8223 8224
7813 1 8224 8225
7814 1 8225 8226
7815 1 8226 8227
7816 1 8227 8228
7817 1 8228 8229
7818 1 8229 8230
7819 1 8230 8231
7820 1 8231 8232
7821 1 8232 8233
7822 1 8233 8234
7823 1 8234 8235
7824 1 8235 8236
7825 1 8236 8237
7826 1 8237 8238
7827 1 8238 8239
7828 1 8239 8240
7829 1 8241 8242
7830 1 8242 8243
7831 1 8243 8244
7832 1 8244 8245
7833 1 8245 8246
7834 1 8246 8247
7835 1 8247 8248
7836 1 8248 8249
7837 1 8249 8250
7838 1 8250 8251
7839 1 8251 8252
7840 1 8252 8253
7841 1 8253 8254
7842 1 8254 8255
7843 1 8255 8256
7844 1 8256 8257
7845 1 8257 8258
7846 1 8258 8259
7847 1 8259 8260
7848 1 8261 8262
7849 1 8262 8263
7850 1 8263 8264
7851 1 8264 8265
7852 1 8265 8266
7853 1 8266 8267
7854 1 8267 8268
7855 1 8268 8269
7856 1 8269 8270
7857 1 8270 8271
7858 1 8271 8272
7859 1 8272 8273
7860 1 8273 8274
7861 1 8274 8275
7862 1 8275 8276
7863 1 8276 8277
7864 1 8277 8278
7865 1 8278 8279
7866 1 8279 8280
7867 1 8281 8282
7868 1 8282 8283
7869 1 8283 8284
7870 1 8284 8285
7871 1 8285 8286
7872 1 8286 8287
7873 1 8287 8288
7874 1 8288 8289
7875 1 8289 8290
7876 1 8290 8291
7877 1 8291 8292
7878 1 8292 8293
7879 1 8293 8294
7880 1 8294 8295
7881 1 8295 8296
7882 1 8296 8297
7883 1 8297 8298
7884 1 8298 8299
7885 1 8299 8300
7886 1 8301 8302
7887 1 8302 8303
7888 1 8303 8304
7889 1 8304 8305
7890 1 8305 8306
7891 1 8306 8307
7892 1 8307 8308
7893 1 8308 8309
7894 1 8309 8310
7895 1 8310 8311
7896 1 8311 8312
7897 1 8312 8313
7898 1 8313 8314
7899 1 8314 8315
7900 1 8315 8316
7901 1 8316 8317
7902 1 8317 8318
7903 1 8318 8319
7904 1 8319 8320
7905 1 8321 8322
7906 1 8322 8323
7907 1 8323 8324
7908 1 8324 8325
7909 1 8325 8326
7910 1 8326 8327
7911 1 8327 8328
7912 1 8328 8329
7913 1 8329 8330
7914 1 8330 8331
7915 1 8331 8332
7916 1 8332 8333
7917 1 8333 8334
7918 1 8334 8335
7919 1 8335 8336
7920 1 8336 8337
7921 1 8337 8338
7922 1 8338 8339
7923 1 8339 8340
7924 1 8341 8342
7925 1 8342 8343
7926 1 8343 8344
7927 1 8344 8345
7928 1 8345 8346
7929 1 8346 8347
7930 1 8347 8348
7931 1 8348 8349
7932 1 8349 8350
7933 1 8350 8351
7934 1 8351 8352
7935 1 8352 8353
7936 1 8353 8354
7937 1 8354 8355
7938 1 8355 8356
7939 1 8356 8357
7940 1 8357 8358
7941 1 8358 8359
7942 1 8359 8360
7943 1 8361 8362
7944 1 8362 8363
7945 1 8363 8364
7946 1 8364 8365
7947 1 8365 8366
7948 1 8366 8367
7949 1 8367 8368
7950 1 8368 8369
7951 1 8369 8370
7952 1 8370 8371
7953 1 8371 8372
7954 1 8372 8373
7955 1 8373 8374
7956 1 8374 8375
7957 1 8375 8376
7958 1 8376 8377
7959 1 8377 8378
7960 1 8378 8379
7961 1 8379 8380
7962 1 8381 8382
7963 1 8382 8383
7964 1 8383 8384
7965 1 8384 8385
7966 1 8385 8386
7967 1 8386 8387
7968 1 8387 8388
7969 1 8388 8389
7970 1 8389 8390
7971 1 8390 8391
7972 1 8391 8392
7973 1 8392 8393
7974 1 8393 8394
7975 1 8394 8395
7976 1 8395 8396
7977 1 8396 8397
7978 1 8397 8398
7979 1 8398 8399
7980 1 8399 8400
7981 1 8401 8402
7982 1 8402 8403
7983 1 8403 8404
7984 1 8404 8405
7985 1 8405 8406
7986 1 8406 8407
7987 1 8407 8408
7988 1 8408 8409
7989 1 8409 8410
7990 1 8410 8411
7991 1 8411 8412
7992 1 8412 8413
7993 1 8413 8414
7994 1 8414 8415
7995 1 8415 8416
7996 1 8416 8417
7997 1 8417 8418
7998 1 8418 8419
7999 1 8419 8420
8000 1 8421 8422
8001 1 8422 8423
8002 1 8423 8424
8003 1 8424 8425
8004 1 8425 8426
8005 1 8426 8427
8006 1 8427 8428
8007 1 8428 8429
8008 1 8429 8430
8009 1 8430 8431
8010 1 8431 8432
8011 1 8432 8433
8012 1 8433 8434
8013 1 8434 8435
8014 1 8435 8436
8015 1 8436 8437
8016 1 8437 8438
8017 1 8438 8439
8018 1 8439 8440
8019 1 8441 8442
8020 1 8442 8443
8021 1 8443 8444
8022 1 8444 8445
8023 1 8445 8446
8024 1 8446 8447
8025 1 8447 8448
8026 1 8448 8449
8027 1 8449 8450
8028 1 8450 8451
8029 1 8451 8452
8030 1 8452 8453
8031 1 8453 8454
8032 1 8454 8455
8033 1 8455 8456
8034 1 8456 8457
8035 1 8457 8458
8036 1 8458 8459
8037 1 8459 8460
8038 1 8461 8462
8039 1 8462 8463
8040 1 8463 8464
8041 1 8464 8465
8042 1 8465 8466
8043 1 8466 8467
8044 1 8467 8468
8045 1 8468 8469
8046 1 8469 8470
8047 1 8470 8471
8048 1 8471 8472
8049 1 8472 8473
8050 1 8473 8474
8051 1 8474 8475
8052 1 8475 8476
8053 1 8476 8477
8054 1 8477 8478
8055 1 8478 8479
8056 1 8479 8480
8057 1 8481 8482
8058 1 8482 8483
8059 1 8483 8484
8060 1 8484 8485
8061 1 8485 8486
8062 1 8486 8487
8063 1 8487 8488
8064 1 8488 8489
8065 1 8489 8490
8066 1 8490 8491
8067 1 8491 8492
8068 1 8492 8493
8069 1 8493 8494
8070 1 8494 8495
8071 1 8495 8496
8072 1 8496 8497
8073 1 8497 8498
8074 1 8498 8499
8075 1 8499 8500
8076 1 8501 8502
8077 1 8502 8503
8078 1 8503 8504
8079 1 8504 8505
8080 1 8505 8506
8081 1 8506 8507
8082 1 8507 8508
8083 1 8508 8509
8084 1 8509 8510
8085 1 8510 8511
8086 1 8511 8512
8087 1 8512 8513
8088 1 8513 8514
8089 1 8514 8515
8090 1 8515 8516
8091 1 8516 8517
8092 1 8517 8518
8093 1 8518 8519
8094 1 8519 8520
8095 1 8521 8522
8096 1 8522 8523
8097 1 8523 8524
8098 1 8524 8525
8099 1 8525 8526
8100 1 8526 8527
8101 1 8527 8528
8102 1 8528 8529
8103 1 8529 8530
8104 1 8530 8531
8105 1 8531 8532
8106 1 8532 8533
8107 1 8533 8534
8108 1 8534 8535
8109 1 8535 8536
8110 1 8536 8537
8111 1 8537 8538
8112 1 8538 8539
8113 1 8539 8540
8114 1 8541 8542
8115 1 8542 8543
8116 1 8543 8544
8117 1 8544 8545
8118 1 8545 8546
8119 1 8546 8547
8120 1 8547 8548
8121 1 8548 8549
8122 1 8549 8550
8123 1 8550 8551
8124 1 8551 8552
8125 1 8552 8553
8126 1 8553 8554
8127 1 8554 8555
8128 1 8555 8556
8129 1 8556 8557
8130 1 8557 8558
8131 1 8558 8559
8132 1 8559 8560
8133 1 8561 8562
8134 1 8562 8563
8135 1 8563 8564
8136 1 8564 8565
8137 1 8565 8566
8138 1 8566 8567
8139 1 8567 8568
8140 1 8568 8569
8141 1 8569 8570
8142 1 8570 8571
8143 1 8571 8572
8144 1 8572 8573
8145 1 8573 8574
8146 1 8574 8575
8147 1 8575 8576
8148 1 8576 8577
8149 1 8577 8578
8150 1 8578 8579
8151 1 8579 8580
8152 1 8581 8582
8153 1 8582 8583
8154 1 8583 8584
8155 1 8584 8585
8156 1 8585 8586
8157 1 8586 8587
8158 1 8587 8588
8159 1 8588 8589
8160 1 8589 8590
8161 1 8590 8591
8162 1 8591 8592
8163 1 8592 8593
8164 1 8593 8594
8165 1 8594 8595
8166 1 8595 8596
8167 1 8596 8597
8168 1 8597 8598
8169 1 8598 8599
8170 1 8599 8600
8171 1 8601 8602
8172 1 8602 8603
8173 1 8603 8604
8174 1 8604 8605
8175 1 8605 8606
8176 1 8606 8607
8177 1 8607 8608
8178 1 8608 8609
8179 1 8609 8610
8180 1 8610 8611
8181 1 8611 8612
8182 1 8612 8613
8183 1 8613 8614
8184 1 8614 8615
8185 1 8615 8616
8186 1 8616 8617
8187 1 8617 8618
8188 1 8618 8619
8189 1 8619 8620
8190 1 8621 8622
8191 1 8622 8623
8192 1 8623 8624
8193 1 8624 8625
8194 1 8625 8626
8195 1 8626 8627
8196 1 8627 8628
8197 1 8628 8629
8198 1 8629 8630
8199 1 8630 8631
8200 1 8631 8632
8201 1 8632 8633
8202 1 8633 8634
8203 1 8634 8635
8204 1 8635 8636
8205 1 8636 8637
8206 1 8637 8638
8207 1 8638 8639
8208 1 8639 8640
8209 1 8641 8642
8210 1 8642 8643
8211 1 8643 8644
8212 1 8644 8645
8213 1 8645 8646
8214 1 8646 8647
8215 1 8647 8648
8216 1 8648 8649
8217 1 8649 8650
8218 1 8650 8651
8219 1 8651 8652
8220 1 8652 8653
8221 1 8653 8654
8222 1 8654 8655
8223 1 8655 8656
8224 1 8656 8657
8225 1 8657 8658
8226 1 8658 8659
8227 1 8659 8660
8228 1 8661 8662
8229 1 8662 8663
8230 1 8663 8664
8231 1 8664 8665
8232 1 8665 8666
8233 1 8666 8667
8234 1 8667 8668
8235 1 8668 8669
8236 1 8669 8670
8237 1 8670 8671
8238 1 8671 8672
8239 1 8672 8673
8240 1 8673 8674
8241 1 8674 8675
8242 1 8675 8676
8243 1 8676 8677
8244 1 8677 8678
8245 1 8678 8679
8246 1 8679 8680
8247 1 8681 8682
8248 1 8682 8683
8249 1 8683 8684
8250 1 8684 8685
8251 1 8685 8686
8252 1 8686 8687
8253 1 8687 8688
8254 1 8688 8689
8255 1 8689 8690
8256 1 8690 8691
8257 1 8691 8692
8258 1 8692 8693
8259 1 8693 8694
8260 1 8694 8695
8261 1 8695 8696
8262 1 8696 8697
8263 1 8697 8698
8264 1 8698 8699
8265 1 8699 8700
8266 1 8701 8702
8267 1 8702 8703
8268 1 8703 8704
8269 1 8704 8705
8270 1 8705 8706
8271 1 8706 8707
8272 1 8707 8708
8273 1 8708 8709
8274 1 8709 8710
8275 1 8710 8711
8276 1 8711 8712
8277 1 8712 8713
8278 1 8713 8714
8279 1 8714 8715
8280 1 8715 8716
8281 1 8716 8717
8282 1 8717 8718
8283 1 8718 8719
8284 1 8719 8720
8285 1 8721 8722
8286 1 8722 8723
8287 1 8723 8724
8288 1 8724 8725
8289 1 8725 8726
8290 1 8726 8727
8291 1 8727 8728
8292 1 8728 8729
8293 1 8729 8730
8294 1 8730 8731
8295 1 8731 8732
8296 1 8732 8733
8297 1 8733 8734
8298 1 8734 8735
8299 1 8735 8736
8300 1 8736 8737
8301 1 8737 8738
8302 1 8738 8739
8303 1 8739 8740
8304 1 8741 8742
8305 1 8742 8743
8306 1 8743 8744
8307 1 8744 8745
8308 1 8745 8746
8309 1 8746 8747
8310 1 8747 8748
8311 1 8748 8749
8312 1 8749 8750
8313 1 8750 8751
8314 1 8751 8752
8315 1 8752 8753
8316 1 8753 8754
8317 1 8754 8755
8318 1 8755 8756
8319 1 8756 8757
8320 1 8757 8758
8321 1 8758 8759
8322 1 8759 8760
8323 1 8761 8762
8324 1 8762 8763
8325 1 8763 8764
8326 1 8764 8765
8327 1 8765 8766
8328 1 8766 8767
8329 1 8767 8768
8330 1 8768 8769
8331 1 8769 8770
8332 1 8770 8771
8333 1 8771 8772
8334 1 8772 8773
8335 1 8773 8774
8336 1 8774 8775
8337 1 8775 8776
8338 1 8776 8777
8339 1 8777 8778
8340 1 8778 8779
8341 1 8779 8780
8342 1 8781 8782
8343 1 8782 8783
8344 1 8783 8784
8345 1 8784 8785
8346 1 8785 8786
8347 1 8786 8787
8348 1 8787 8788
8349 1 8788 8789
8350 1 8789 8790
8351 1 8790 8791
8352 1 8791 8792
8353 1 8792 8793
8354 1 8793 8794
8355 1 8794 8795
8356 1 8795 8796
8357 1 8796 8797
8358 1 8797 8798
8359 1 8798 8799
8360 1 8799 8800
8361 1 8801 8802
8362 1 8802 8803
8363 1 8803 8804
8364 1 8804 8805
8365 1 8805 8806
8366 1 8806 8807
8367 1 8807 8808
8368 1 8808 8809
8369 1 8809 8810
8370 1 8810 8811
8371 1 8811 8812
8372 1 8812 8813
8373 1 8813 8814
8374 1 8814 8815
8375 1 8815 8816
8376 1 8816 8817
8377 1 8817 8818
8378 1 8818 8819
8379 1 8819 8820
8380 1 8821 8822
8381 1 8822 8823
8382 1 8823 8824
8383 1 8824 8825
8384 1 8825 8826
8385 1 8826 8827
8386 1 8827 8828
8387 1 8828 8829
8388 1 8829 8830
8389 1 8830 8831
8390 1 8831 8832
8391 1 8832 8833
8392 1 8833 8834
8393 1 8834 8835
8394 1 8835 8836
8395 1 8836 8837
8396 1 8837 8838
8397 1 8838 8839
8398 1 8839 8840
8399 1 8841 8842
8400 1 8842 8843
8401 1 8843 8844
8402 1 8844 8845
8403 1 8845 8846
8404 1 8846 8847
8405 1 8847 8848
8406 1 8848 8849
8407 1 8849 8850
8408 1 8850 8851
8409 1 8851 8852
8410 1 8852 8853
8411 1 8853 8854
8412 1 8854 8855
8413 1 8855 8856
8414 1 8856 8857
8415 1 8857 8858
8416 1 8858 8859
8417 1 8859 8860
8418 1 8861 8862
8419 1 8862 8863
8420 1 8863 8864
8421 1 8864 8865
8422 1 8865 8866
8423 1 8866 8867
8424 1 8867 8868
8425 1 8868 8869
8426 1 8869 8870
8427 1 8870 8871
8428 1 8871 8872
8429 1 8872 8873
8430 1 8873 8874
8431 1 8874 8875
8432 1 8875 8876
8433 1 8876 8877
8434 1 8877 8878
8435 1 8878 8879
8436 1 8879 8880
8437 1 8881 8882
8438 1 8882 8883
8439 1 8883 8884
8440 1 8884 8885
8441 1 8885 8886
8442 1 8886 8887
8443 1 8887 8888
8444 1 8888 8889
8445 1 8889 8890
8446 1 8890 8891
8447 1 8891 8892
8448 1 8892 8893
8449 1 8893 8894
8450 1 8894 8895
8451 1 8895 8896
8452 1 8896 8897
8453 1 8897 8898
8454 1 8898 8899
8455 1 8899 8900
8456 1 8901 8902
8457 1 8902 8903
8458 1 8903 8904
8459 1 8904 8905
8460 1 8905 8906
8461 1 8906 8907
8462 1 8907 8908
8463 1 8908 8909
8464 1 8909 8910
8465 1 8910 8911
8466 1 8911 8912
8467 1 8912 8913
8468 1 8913 8914
8469 1 8914 8915
8470 1 8915 8916
8471 1 8916 8917
8472 1 8917 8918
8473 1 8918 8919
8474 1 8919 8920
8475 1 8921 8922
8476 1 8922 8923
8477 1 8923 8924
8478 1 8924 8925
8479 1 8925 8926
8480 1 8926 8927
8481 1 8927 8928
8482 1 8928 8929
8483 1 8929 8930
8484 1 8930 8931
8485 1 8931 8932
8486 1 8932 8933
8487 1 8933 8934
8488 1 8934 8935
8489 1 8935 8936
8490 1 8936 8937
8491 1 8937 8938
8492 1 8938 8939
8493 1 8939 8940
8494 1 8941 8942
8495 1 8942 8943
8496 1 8943 8944
8497 1 8944 8945
8498 1 8945 8946
8499 1 8946 8947
8500 1 8947 8948
8501 1 8948 8949
8502 1 8949 8950
8503 1 8950 8951
8504 1 8951 8952
8505 1 8952 8953
8506 1 8953 8954
8507 1 8954 8955
8508 1 8955 8956
8509 1 8956 8957
8510 1 8957 8958
8511 1 8958 8959
8512 1 8959 8960
8513 1 8961 8962
8514 1 8962 8963
8515 1 8963 8964
8516 1 8964 8965
8517 1 8965 8966
8518 1 8966 8967
8519 1 8967 8968
8520 1 8968 8969
8521 1 8969 8970
8522 1 8970 8971
8523 1 8971 8972
8524 1 8972 8973
8525 1 8973 8974
8526 1 8974 8975
8527 1 8975 8976
8528 1 8976 8977
8529 1 8977 8978
8530 1 8978 8979
8531 1 8979 8980
8532 1 8981 8982
8533 1 8982 8983
8534 1 8983 8984
8535 1 8984 8985
8536 1 8985 8986
8537 1 8986 8987
8538 1 8987 8988
8539 1 8988 8989
8540 1 8989 8990
8541 1 8990 8991
8542 1 8991 8992
8543 1 8992 8993
8544 1 8993 8994
8545 1 8994 8995
8546 1 8995 8996
8547 1 8996 8997
8548 1 8997 8998
8549 1 8998 8999
8550 1 8999 9000
8551 1 9001 9002
8552 1 9002 9003
8553 1 9003 9004
8554 1 9004 9005
8555 1 9005 9006
8556 1 9006 9007
8557 1 9007 9008
8558 1 9008 9009
8559 1 9009 9010
8560 1 9010 9011
8561 1 9011 9012
8562 1 9012 9013
8563 1 9013 9014
8564 1 9014 9015
8565 1 9015 9016
8566 1 9016 9017
8567 1 9017 9018
8568 1 9018 9019
8569 1 9019 9020
8570 1 9021 9022
8571 1 9022 9023
8572 1 9023 9024
8573 1 9024 9025
8574 1 9025 9026
8575 1 9026 9027
8576 1 9027 9028
8577 1 9028 9029
8578 1 9029 9030
8579 1 9030 9031
8580 1 9031 9032
8581 1 9032 9033
8582 1 9033 9034
8583 1 9034 9035
8584 1 9035 9036
8585 1 9036 9037
8586 1 9037 9038
8587 1 9038 9039
8588 1 9039 9040
8589 1 9041 9042
8590 1 9042 9043
8591 1 9043 9044
8592 1 9044 9045
8593 1 9045 9046
8594 1 9046 9047
8595 1 9047 9048
8596 1 9048 9049
8597 1 9049 9050
8598 1 9050 9051
8599 1 9051 9052
8600 1 9052 9053
8601 1 9053 9054
8602 1 9054 9055
8603 1 9055 9056
8604 1 9056 9057
8605 1 9057 9058
8606 1 9058 9059
8607 1 9059 9060
8608 1 9061 9062
8609 1 9062 9063
8610 1 9063 9064
8611 1 9064 9065
8612 1 9065 9066
8613 1 9066 9067
8614 1 9067 9068
8615 1 9068 9069
8616 1 9069 9070
8617 1 9070 9071
8618 1 9071 9072
8619 1 9072 9073
8620 1 9073 9074
8621 1 9074 9075
8622 1 9075 9076
8623 1 9076 9077
8624 1 9077 9078
8625 1 9078 9079
8626 1 9079 9080
8627 1 9081 9082
8628 1 9082 9083
8629 1 9083 9084
8630 1 9084 9085
8631 1 9085 9086
8632 1 9086 9087
8633 1 9087 9088
8634 1 9088 9089
8635 1 9089 9090
8636 1 9090 9091
8637 1 9091 9092
8638 1 9092 9093
8639 1 9093 9094
8640 1 9094 9095
8641 1 9095 9096
8642 1 9096 9097
8643 1 9097 9098
8644 1 9098 9099
8645 1 9099 9100
8646 1 9101 9102
8647 1 9102 9103
8648 1 9103 9104
8649 1 9104 9105
8650 1 9105 9106
8651 1 9106 9107
8652 1 9107 9108
8653 1 9108 9109
8654 1 9109 9110
8655 1 9110 9111
8656 1 9111 9112
8657 1 9112 9113
8658 1 9113 9114
8659 1 9114 9115
8660 1 9115 9116
8661 1 9116 9117
8662 1 9117 9118
8663 1 9118 9119
8664 1 9119 9120
8665 1 9121 9122
8666 1 9122 9123
8667 1 9123 9124
8668 1 9124 9125
8669 1 9125 9126
8670 1 9126 9127
8671 1 9127 9128
8672 1 9128 9129
8673 1 9129 9130
8674 1 9130 9131
8675 1 9131 9132
8676 1 9132 9133
8677 1 9133 9134
8678 1 9134 9135
8679 1 9135 9136
8680 1 9136 9137
8681 1 9137 9138
8682 1 9138 9139
8683 1 9139 9140
8684 1 9141 9142
8685 1 9142 9143
8686 1 9143 9144
8687 1 9144 9145
8688 1 9145 9146
8689 1 9146 9147
8690 1 9147 9148
8691 1 9148 9149
8692 1 9149 9150
8693 1 9150 9151
8694 1 9151 9152
8695 1 9152 9153
8696 1 9153 9154
8697 1 9154 9155
8698 1 9155 9156
8699 1 9156 9157
8700 1 9157 9158
8701 1 9158 9159
8702 1 9159 9160
8703 1 9161 9162
8704 1 9162 9163
8705 1 9163 9164
8706 1 9164 9165
8707 1 9165 9166
8708 1 9166 9167
8709 1 9167 9168
8710 1 9168 9169
8711 1 9169 9170
8712 1 9170 9171
8713 1 9171 9172
8714 1 9172 9173
8715 1 9173 9174
8716 1 9174 9175
8717 1 9175 9176
8718 1 9176 9177
8719 1 9177 9178
8720 1 9178 9179
8721 1 9179 9180
8722 1 9181 9182
8723 1 9182 9183
8724 1 9183 9184
8725 1 9184 9185
8726 1 9185 9186
8727 1 9186 9187
8728 1 9187 9188
8729 1 9188 9189
8730 1 9189 9190
8731 1 9190 9191
8732 1 9191 9192
8733 1 9192 9193
8734 1 9193 9194
8735 1 9194 9195
8736 1 9195 9196
8737 1 9196 9197
8738 1 9197 9198
8739 1 9198 9199
8740 1 9199 9200
8741 1 9201 9202
8742 1 9202 9203
8743 1 9203 9204
8744 1 9204 9205
8745 1 9205 9206
8746 1 9206 9207
8747 1 9207 9208
8748 1 9208 9209
8749 1 9209 9210
8750 1 9210 9211
8751 1 9211 9212
8752 1 9212 9213
8753 1 9213 9214
8754 1 9214 9215
8755 1 9215 9216
8756 1 9216 9217
8757 1 9217 9218
8758 1 9218 9219
8759 1 9219 9220
8760 1 9221 9222
8761 1 9222 9223
8762 1 9223 9224
8763 1 9224 9225
8764 1 9225 9226
8765 1 9226 9227
8766 1 9227 9228
8767 1 9228 9229
8768 1 9229 9230
8769 1 9230 9231
8770 1 9231 9232
8771 1 9232 9233
8772 1 9233 9234
8773 1 9234 9235
8774 1 9235 9236
8775 1 9236 9237
8776 1 9237 9238
8777 1 9238 9239
8778 1 9239 9240
8779 1 9241 9242
8780 1 9242 9243
8781 1 9243 9244
8782 1 9244 9245
8783 1 9245 9246
8784 1 9246 9247
8785 1 9247 9248
8786 1 9248 9249
8787 1 9249 9250
8788 1 9250 9251
8789 1 9251 9252
8790 1 9252 9253
8791 1 9253 9254
8792 1 9254 9255
8793 1 9255 9256
8794 1 9256 9257
8795 1 9257 9258
8796 1 9258 9259
8797 1 9259 9260
8798 1 9261 9262
8799 1 9262 9263
8800 1 9263 9264
8801 1 9264 9265
8802 1 9265 9266
8803 1 9266 9267
8804 1 9267 9268
8805 1 9268 9269
8806 1 9269 9270
8807 1 9270 9271
8808 1 9271 9272
8809 1 9272 9273
8810 1 9273 9274
8811 1 9274 9275
8812 1 9275 9276
8813 1 9276 9277
8814 1 9277 9278
8815 1 9278 9279
8816 1 9279 9280
8817 1 9281 9282
8818 1 9282 9283
8819 1 9283 9284
8820 1 9284 9285
8821 1 9285 9286
8822 1 9286 9287
8823 1 9287 9288
8824 1 9288 9289
8825 1 9289 9290
8826 1 9290 9291
8827 1 9291 9292
8828 1 9292 9293
8829 1 9293 9294
8830 1 9294 9295
8831 1 9295 9296
8832 1 9296 9297
8833 1 9297 9298
8834 1 9298 9299
8835 1 9299 9300
8836 1 9301 9302
8837 1 9302 9303
8838 1 9303 9304
8839 1 9304 9305
8840 1 9305 9306
8841 1 9306 9307
8842 1 9307 9308
8843 1 9308 9309
8844 1 9309 9310
8845 1 9310 9311
8846 1 9311 9312
8847 1 9312 9313
8848 1 9313 9314
8849 1 9314 9315
8850 1 9315 9316
8851 1 9316 9317
8852 1 9317 9318
8853 1 9318 9319
8854 1 9319 9320
8855 1 9321 9322
8856 1 9322 9323
8857 1 9323 9324
8858 1 9324 9325
8859 1 9325 9326
8860 1 9326 9327
8861 1 9327 9328
8862 1 9328 9329
8863 1 9329 9330
8864 1 9330 9331
8865 1 9331 9332
8866 1 9332 9333
8867 1 9333 9334
8868 1 9334 9335
8869 1 9335 9336
8870 1 9336 9337
8871 1 9337 9338
8872 1 9338 9339
8873 1 9339 9340
8874 1 9341 9342
8875 1 9342 9343
8876 1 9343 9344
8877 1 9344 9345
8878 1 9345 9346
8879 1 9346 9347
8880 1 9347 9348
8881 1 9348 9349
8882 1 9349 9350
8883 1 9350 9351
8884 1 9351 9352
8885 1 9352 9353
8886 1 9353 9354
8887 1 9354 9355
8888 1 9355 9356
8889 1 9356 9357
8890 1 9357 9358
8891 1 9358 9359
8892 1 9359 9360
8893 1 9361 9362
8894 1 9362 9363
8895 1 9363 9364
8896 1 9364 9365
8897 1 9365 9366
8898 1 9366 9367
8899 1 9367 9368
8900 1 9368 9369
8901 1 9369 9370
8902 1 9370 9371
8903 1 9371 9372
8904 1 9372 9373
8905 1 9373 9374
8906 1 9374 9375
8907 1 9375 9376
8908 1 9376 9377
8909 1 9377 9378
8910 1 9378 9379
8911 1 9379 9380
8912 1 9381 9382
8913 1 9382 9383
8914 1 9383 9384
8915 1 9384 9385
8916 1 9385 9386
8917 1 9386 9387
8918 1 9387 9388
8919 1 9388 9389
8920 1 9389 9390
8921 1 9390 9391
8922 1 9391 9392
8923 1 9392 9393
8924 1 9393 9394
8925 1 9394 9395
8926 1 9395 9396
8927 1 9396 9397
8928 1 9397 9398
8929 1 9398 9399
8930 1 9399 9400
8931 1 9401 9402
8932 1 9402 9403
8933 1 9403 9404
8934 1 9404 9405
8935 1 9405 9406
8936 1 9406 9407
8937 1 9407 9408
8938 1 9408 9409
8939 1 9409 9410
8940 1 9410 9411
8941 1 9411 9412
8942 1 9412 9413
8943 1 9413 9414
8944 1 9414 9415
8945 1 9415 9416
8946 1 9416 9417
8947 1 9417 9418
8948 1 9418 9419
8949 1 9419 9420
8950 1 9421 9422
8951 1 9422 9423
8952 1 9423 9424
8953 1 9424 9425
8954 1 9425 9426
8955 1 9426 9427
8956 1 9427 9428
8957 1 9428 9429
8958 1 9429 9430
8959 1 9430 9431
8960 1 9431 9432
8961 1 9432 9433
8962 1 9433 9434
8963 1 9434 9435
8964 1 9435 9436
8965 1 9436 9437
8966 1 9437 9438
8967 1 9438 9439
8968 1 9439 9440
8969 1 9441 9442
8970 1 9442 9443
8971 1 9443 9444
8972 1 9444 9445
8973 1 9445 9446
8974 1 9446 9447
8975 1 9447 9448
8976 1 9448 9449
8977 1 9449 9450
8978 1 9450 9451
8979 1 9451 9452
8980 1 9452 9453
8981 1 9453 9454
8982 1 9454 9455
8983 1 9455 9456
8984 1 9456 9457
8985 1 9457 9458
8986 1 9458 9459
8987 1 9459 9460
8988 1 9461 9462
8989 1 9462 9463
8990 1 9463 9464
8991 1 9464 9465
8992 1 9465 9466
8993 1 9466 9467
8994 1 9467 9468
8995 1 9468 9469
8996 1 9469 9470
8997 1 9470 9471
8998 1 9471 9472
8999 1 9472 9473
9000 1 9473 9474
9001 1 9474 9475
9002 1 9475 9476
9003 1 9476 9477
9004 1 9477 9478
9005 1 9478 9479
9006 1 9479 9480
9007 1 9481 9482
9008 1 9482 9483
9009 1 9483 9484
9010 1 9484 9485
9011 1 9485 9486
9012 1 9486 9487
9013 1 9487 9488
9014 1 9488 9489
9015 1 9489 9490
9016 1 9490 9491
9017 1 9491 9492
9018 1 9492 9493
9019 1 9493 9494
9020 1 9494 9495
9021 1 9495 9496
9022 1 9496 9497
9023 1 9497 9498
9024 1 9498 9499
9025 1 9499 9500
9026 1 9501 9502
9027 1 9502 9503
9028 1 9503 9504
9029 1 9504 9505
9030 1 9505 9506
9031 1 9506 9507
9032 1 9507 9508
9033 1 9508 9509
9034 1 9509 9510
9035 1 9510 9511
9036 1 9511 9512
9037 1 9512 9513
9038 1 9513 9514
9039 1 9514 9515
9040 1 9515 9516
9041 1 9516 9517
9042 1 9517 9518
9043 1 9518 9519
9044 1 9519 9520
9045 1 9521 9522
9046 1 9522 9523
9047 1 9523 9524
9048 1 9524 9525
9049 1 9525 9526
9050 1 9526 9527
9051 1 9527 9528
9052 1 9528 9529
9053 1 9529 9530
9054 1 9530 9531
9055 1 9531 9532
9056 1 9532 9533
9057 1 9533 9534
9058 1 9534 9535
9059 1 9535 9536
9060 1 9536 9537
9061 1 9537 9538
9062 1 9538 9539
9063 1 9539 9540
9064 1 9541 9542
9065 1 9542 9543
9066 1 9543 9544
9067 1 9544 9545
9068 1 9545 9546
9069 1 9546 9547
9070 1 9547 9548
9071 1 9548 9549
9072 1 9549 9550
9073 1 9550 9551
9074 1 9551 9552
9075 1 9552 9553
9076 1 9553 9554
9077 1 9554 9555
9078 1 9555 9556
9079 1 9556 9557
9080 1 9557 9558
9081 1 9558 9559
9082 1 9559 9560
9083 1 9561 9562
9084 1 9562 9563
9085 1 9563 9564
9086 1 9564 9565
9087 1 9565 9566
9088 1 9566 9567
9089 1 9567 9568
9090 1 9568 9569
9091 1 9569 9570
9092 1 9570 9571
9093 1 9571 9572
9094 1 9572 9573
9095 1 9573 9574
9096 1 9574 9575
9097 1 9575 9576
9098 1 9576 9577
9099 1 9577 9578
9100 1 9578 9579
9101 1 9579 9580
9102 1 9581 9582
9103 1 9582 9583
9104 1 9583 9584
9105 1 9584 9585
9106 1 9585 9586
9107 1 9586 9587
9108 1 9587 9588
9109 1 9588 9589
9110 1 9589 9590
9111 1 9590 9591
9112 1 9591 9592
9113 1 9592 9593
9114 1 9593 9594
9115 1 9594 9595
9116 1 9595 9596
9117 1 9596 9597
9118 1 9597 9598
9119 1 9598 9599
9120 1 9599 9600
9121 1 9601 9602
9122 1 9602 9603
9123 1 9603 9604
9124 1 9604 9605
9125 1 9605 9606
9126 1 9606 9607
9127 1 9607 9608
9128 1 9608 9609
9129 1 9609 9610
9130 1 9610 9611
9131 1 9611 9612
9132 1 9612 9613
9133 1 9613 9614
9134 1 9614 9615
9135 1 9615 9616
9136 1 9616 9617
9137 1 9617 9618
9138 1 9618 9619
9139 1 9619 9620
9140 1 9621 9622
9141 1 9622 9623
9142 1 9623 9624
9143 1 9624 9625
9144 1 9625 9626
9145 1 9626 9627
9146 1 9627 9628
9147 1 9628 9629
9148 1 9629 9630
9149 1 9630 9631
9150 1 9631 9632
9151 1 9632 9633
9152 1 9633 9634
9153 1 9634 9635
9154 1 9635 9636
9155 1 9636 9637
9156 1 9637 9638
9157 1 9638 9639
9158 1 9639 9640
9159 1 9641 9642
9160 1 9642 9643
9161 1 9643 9644
9162 1 9644 9645
9163 1 9645 9646
9164 1 9646 9647
9165 1 9647 9648
9166 1 9648 9649
9167 1 9649 9650
9168 1 9650 9651
9169 1 9651 9652
9170 1 9652 9653
9171 1 9653 9654
9172 1 9654 9655
9173 1 9655 9656
9174 1 9656 9657
9175 1 9657 9658
9176 1 9658 9659
9177 1 9659 9660
9178 1 9661 9662
9179 1 9662 9663
9180 1 9663 9664
9181 1 9664 9665
9182 1 9665 9666
9183 1 9666 9667
9184 1 9667 9668
9185 1 9668 9669
9186 1 9669 9670
9187 1 9670 9671
9188 1 9671 9672
9189 1 9672 9673
9190 1 9673 9674
9191 1 9674 9675
9192 1 9675 9676
9193 1 9676 9677
9194 1 9677 9678
9195 1 9678 9679
9196 1 9679 9680
9197 1 9681 9682
9198 1 9682 9683
9199 1 9683 9684
9200 1 9684 9685
9201 1 9685 9686
9202 1 9686 9687
9203 1 9687 9688
9204 1 9688 9689
9205 1 9689 9690
9206 1 9690 9691
9207 1 9691 9692
9208 1 9692 9693
9209 1 9693 9694
9210 1 9694 9695
9211 1 9695 9696
9212 1 9696 9697
9213 1 9697 9698
9214 1 9698 9699
9215 1 9699 9700
9216 1 9701 9702
9217 1 9702 9703
9218 1 9703 9704
9219 1 9704 9705
9220 1 9705 9706
9221 1 9706 9707
9222 1 9707 9708
9223 1 9708 9709
9224 1 9709 9710
9225 1 9710 9711
9226 1 9711 9712
9227 1 9712 9713
9228 1 9713 9714
9229 1 9714 9715
9230 1 9715 9716
9231 1 9716 9717
9232 1 9717 9718
9233 1 9718 9719
9234 1 9719 9720
9235 1 9721 9722
9236 1 9722 9723
9237 1 9723 9724
9238 1 9724 9725
9239 1 9725 9726
9240 1 9726 9727
9241 1 9727 9728
9242 1 9728 9729
9243 1 9729 9730
9244 1 9730 9731
9245 1 9731 9732
9246 1 9732 9733
9247 1 9733 9734
9248 1 9734 9735
9249 1 9735 9736
9250 1 9736 9737
9251 1 9737 9738
9252 1 9738 9739
9253 1 9739 9740
9254 1 9741 9742
9255 1 9742 9743
9256 1 9743 9744
9257 1 9744 9745
9258 1 9745 9746
9259 1 9746 9747
9260 1 9747 9748
9261 1 9748 9749
9262 1 9749 9750
9263 1 9750 9751
9264 1 9751 9752
9265 1 9752 9753
9266 1 9753 9754
9267 1 9754 9755
9268 1 9755 9756
9269 1 9756 9757
9270 1 9757 9758
9271 1 9758 9759
9272 1 9759 9760
9273 1 9761 9762
9274 1 9762 9763
9275 1 9763 9764
9276 1 9764 9765
9277 1 9765 9766
9278 1 9766 9767
9279 1 9767 9768
9280 1 9768 9769
9281 1 9769 9770
9282 1 9770 9771
9283 1 9771 9772
9284 1 9772 9773
9285 1 9773 9774
9286 1 9774 9775
9287 1 9775 9776
9288 1 9776 9777
9289 1 9777 9778
9290 1 9778 9779
9291 1 9779 9780
9292 1 9781 9782
9293 1 9782 9783
9294 1 9783 9784
9295 1 9784 9785
9296 1 9785 9786
9297 1 9786 9787
9298 1 9787 9788
9299 1 9788 9789
9300 1 9789 9790
9301 1 9790 9791
9302 1 9791 9792
9303 1 9792 9793
9304 1 9793 9794
9305 1 9794 9795
9306 1 9795 9796
9307 1 9796 9797
9308 1 9797 9798
9309 1 9798 9799
9310 1 9799 9800
9311 1 9801 9802
9312 1 9802 9803
9313 1 9803 9804
9314 1 9804 9805
9315 1 9805 9806
9316 1 9806 9807
9317 1 9807 9808
9318 1 9808 9809
9319 1 9809 9810
9320 1 9810 9811
9321 1 9811 9812
9322 1 9812 9813
9323 1 9813 9814
9324 1 9814 9815
9325 1 9815 9816
9326 1 9816 9817
9327 1 9817 9818
9328 1 9818 9819
9329 1 9819 9820
9330 1 9821 9822
9331 1 9822 9823
9332 1 9823 9824
9333 1 9824 9825
9334 1 9825 9826
9335 1 9826 9827
9336 1 9827 9828
9337 1 9828 9829
9338 1 9829 9830
9339 1 9830 9831
9340 1 9831 9832
9341 1 9832 9833
9342 1 9833 9834
9343 1 9834 9835
9344 1 9835 9836
9345 1 9836 9837
9346 1 9837 9838
9347 1 9838 9839
9348 1 9839 9840
9349 1 9841 9842
9350 1 9842 9843
9351 1 9843 9844
9352 1 9844 9845
9353 1 9845 9846
9354 1 9846 9847
9355 1 9847 9848
9356 1 9848 9849
9357 1 9849 9850
9358 1 9850 9851
9359 1 9851 9852
9360 1 9852 9853
9361 1 9853 9854
9362 1 9854 9855
9363 1 9855 9856
9364 1 9856 9857
9365 1 9857 9858
9366 1 9858 9859
9367 1 9859 9860
9368 1 9861 9862
9369 1 9862 9863
9370 1 9863 9864
9371 1 9864 9865
9372 1 9865 9866
9373 1 9866 9867
9374 1 9867 9868
9375 1 9868 9869
9376 1 9869 9870
9377 1 9870 9871
9378 1 9871 9872
9379 1 9872 9873
9380 1 9873 9874
9381 1 9874 9875
9382 1 9875 9876
9383 1 9876 9877
9384 1 9877 9878
9385 1 9878 9879
9386 1 9879 9880
9387 1 9881 9882
9388 1 9882 9883
9389 1 9883 9884
9390 1 9884 9885
9391 1 9885 9886
9392 1 9886 9887
9393 1 9887 9888
9394 1 9888 9889
9395 1 9889 9890
9396 1 9890 9891
9397 1 9891 9892
9398 1 9892 9893
9399 1 9893 9894
9400 1 9894 9895
9401 1 9895 9896
9402 1 9896 9897
9403 1 9897 9898
9404 1 9898 9899
9405 1 9899 9900
9406 1 9901 9902
9407 1 9902 9903
9408 1 9903 9904
9409 1 9904 9905
9410 1 9905 9906
9411 1 9906 9907
9412 1 9907 9908
9413 1 9908 9909
9414 1 9909 9910
9415 1 9910 9911
9416 1 9911 9912
9417 1 9912 9913
9418 1 9913 9914
9419 1 9914 9915
9420 1 9915 9916
9421 1 9916 9917
9422 1 9917 9918
9423 1 9918 9919
9424 1 9919 9920
9425 1 9921 9922
9426 1 9922 9923
9427 1 9923 9924
9428 1 9924 9925
9429 1 9925 9926
9430 1 9926 9927
9431 1 9927 9928
9432 1 9928 9929
9433 1 9929 9930
9434 1 9930 9931
9435 1 9931 9932
9436 1 9932 9933
9437 1 9933 9934
9438 1 9934 9935
9439 1 9935 9936
9440 1 9936 9937
9441 1 9937 9938
9442 1 9938 9939
9443 1 9939 9940
9444 1 9941 9942
9445 1 9942 9943
9446 1 9943 9944
9447 1 9944 9945
9448 1 9945 9946
9449 1 9946 9947
9450 1 9947 9948
9451 1 9948 9949
9452 1 9949 9950
9453 1 9950 9951
9454 1 9951 9952
9455 1 9952 9953
9456 1 9953 9954
9457 1 9954 9955
9458 1 9955 9956
9459 1 9956 9957
9460 1 9957 9958
9461 1 9958 9959
9462 1 9959 9960
9463 1 9961 9962
9464 1 9962 9963
9465 1 9963 9964
9466 1 9964 9965
9467 1 9965 9966
9468 1 9966 9967
9469 1 9967 9968
9470 1 9968 9969
9471 1 9969 9970
9472 1 9970 9971
9473 1 9971 9972
9474 1 9972 9973
9475 1 9973 9974
9476 1 9974 9975
9477 1 9975 9976
9478 1 9976 9977
9479 1 9977 9978
9480 1 9978 9979
9481 1 9979 9980
9482 1 9981 9982
9483 1 9982 9983
9484 1 9983 9984
9485 1 9984 9985
9486 1 9985 9986
9487 1 9986 9987
9488 1 9987 9988
9489 1 9988 9989
9490 1 9989 9990
9491 1 9990 9991
9492 1 9991 9992
9493 1 9992 9993
9494 1 9993 9994
9495 1 9994 9995
9496 1 9995 9996
9497 1 9996 9997
9498 1 9997 9998
9499 1 9998 9999
9500 1 9999 10000
