LAMMPS (22 Jul 2025 - Update 2)
# LAMMPS input for LJ binary mixture with Widom insertion
# Equal sigma, different epsilon

# Initialize
units           lj
atom_style      atomic
boundary        p p p

# Create simulation box
lattice         fcc 0.8
Lattice spacing in x,y,z = 1.7099759 1.7099759 1.7099759
region          box block 0 15 0 15 0 15
create_box      2 box
Created orthogonal box = (0 0 0) to (25.649639 25.649639 25.649639)
  2 by 2 by 2 MPI processor grid
create_atoms    1 box
Created 13500 atoms
  using lattice units in orthogonal box = (0 0 0) to (25.649639 25.649639 25.649639)
  create_atoms CPU = 0.003 seconds

# Set masses (both equal to 1.0 in reduced units)
mass            1 1.0
mass            2 1.0

# Set up 50:50 mixture
set             group all type/fraction 2 0.5 12345
Setting atom values ...
  6702 settings made for type/fraction

# Define groups
group           typeA type 1
6798 atoms in group typeA
group           typeB type 2
6702 atoms in group typeB

# LJ parameters
pair_style      lj/cut 3.0
pair_modify     tail yes
pair_coeff      1 1 0.8 1.0    # A-A interaction
pair_coeff      2 2 1.2 1.0    # B-B interaction
pair_coeff      1 2 0.2 1.0 # A-B interaction

# Initial velocities
velocity        all create 5.0 12222 dist gaussian

# Neighbor list
neighbor        0.3 bin
neigh_modify    every 1 delay 0 check yes

# Time integration (NPT)
fix             1 all npt temp 5.0 5.0 $(100*dt) iso 1.0 1.0 $(1000*dt)
fix             1 all npt temp 5.0 5.0 0.5 iso 1.0 1.0 $(1000*dt)
fix             1 all npt temp 5.0 5.0 0.5 iso 1.0 1.0 5
timestep        0.005

# Output including enthalpy
thermo_style    custom step temp pe ke etotal press density enthalpy vol
thermo          1000

# Equilibration
run             10000
Generated 0 of 1 mixed pair_coeff terms from geometric mixing rule
Neighbor list info ...
  update: every = 1 steps, delay = 0 steps, check = yes
  max neighbors/atom: 2000, page size: 100000
  master list distance cutoff = 3.3
  ghost atom cutoff = 3.3
  binsize = 1.65, bins = 16 16 16
  1 neighbor lists, perpetual/occasional/extra = 1 0 0
  (1) pair lj/cut, perpetual
      attributes: half, newton on
      pair build: half/bin/atomonly/newton
      stencil: half/bin/3d
      bin: standard
Per MPI rank memory allocation (min/avg/max) = 3.606 | 3.606 | 3.606 Mbytes
   Step          Temp          PotEng         KinEng         TotEng         Press         Density        Enthalpy        Volume    
         0   5             -4.0407837      7.4994444      3.4586608     -0.088736676    0.8            3.3477399      16875        
      1000   5.0000577     -1.117169       7.4995311      6.3823621      7.3318141      0.62817711     18.053934      21490.754    
      2000   4.9744903     -1.0359869      7.4611827      6.4251957      5.0183531      0.519021       16.094078      26010.508    
      3000   4.9962418     -0.94079205     7.4938076      6.5530155      3.7874648      0.44252522     15.11177       30506.736    
      4000   5.0114633     -0.86800316     7.5166381      6.6486349      2.9848174      0.38509835     14.399427      35055.98     
      5000   4.9772356     -0.77831383     7.4653004      6.6869866      2.4940467      0.34043667     14.013009      39654.952    
      6000   4.9869608     -0.72157784     7.4798871      6.7583093      2.1045782      0.30481012     13.662864      44289.869    
      7000   5.0084104     -0.663332       7.5120591      6.8487271      1.8344756      0.27606895     13.493718      48900.827    
      8000   5.0541577     -0.61796158     7.580675       6.9627134      1.6398854      0.25272381     13.451557      53417.998    
      9000   5.0430286     -0.57458544     7.5639826      6.9893972      1.4893467      0.23383373     13.358652      57733.33     
     10000   4.914476      -0.54397887     7.371168       6.8271891      1.3335828      0.21832409     12.935461      61834.679    
Loop time of 30.1306 on 8 procs for 10000 steps with 13500 atoms

Performance: 143375.654 tau/day, 331.888 timesteps/s, 4.480 Matom-step/s
85.8% CPU use with 8 MPI tasks x no OpenMP threads

MPI task timing breakdown:
Section |  min time  |  avg time  |  max time  |%varavg| %total
---------------------------------------------------------------
Pair    | 5.9316     | 5.984      | 6.0657     |   1.7 | 19.86
Neigh   | 7.0643     | 7.1398     | 7.1998     |   1.5 | 23.70
Comm    | 10.16      | 10.261     | 10.354     |   2.1 | 34.05
Output  | 0.00027333 | 0.00085395 | 0.0010473  |   0.0 |  0.00
Modify  | 5.4787     | 5.5296     | 5.5796     |   1.5 | 18.35
Other   |            | 1.215      |            |       |  4.03

Nlocal:         1687.5 ave        1717 max        1639 min
Histogram: 1 0 1 1 0 0 1 0 2 2
Nghost:        2307.75 ave        2362 max        2245 min
Histogram: 1 0 0 1 2 1 1 0 1 1
Neighs:        27415.9 ave       28240 max       26394 min
Histogram: 2 0 0 1 0 1 0 0 3 1

Total # of neighbors = 219327
Ave neighs/atom = 16.246444
Neighbor list builds = 3267
Dangerous builds = 0

dump            1 all custom 1000 dump.lammpstrj id type x y z
dump_modify     1 sort id

# production
thermo_style    custom step temp pe enthalpy press vol
thermo          1000
run             100000
Generated 0 of 1 mixed pair_coeff terms from geometric mixing rule
Per MPI rank memory allocation (min/avg/max) = 3.637 | 3.638 | 3.638 Mbytes
   Step          Temp          PotEng        Enthalpy        Press          Volume    
     10000   4.914476      -0.54397887     12.935461      1.3335828      61834.679    
     11000   4.9677653     -0.4978613      13.089481      1.2632527      65576.21     
     12000   4.9856194     -0.46275979     13.1293        1.1970183      68955.907    
     13000   5.0199918     -0.46635354     13.090002      1.1321095      71868.931    
     14000   5.0161193     -0.44872237     13.023077      1.0804298      74322.642    
     15000   5.0267808     -0.46108114     12.908974      1.0326138      76224.989    
     16000   4.9810787     -0.42583796     12.918954      1.0212932      77642.063    
     17000   5.0378264     -0.43113        13.027175      1.0148722      78511.059    
     18000   5.019414      -0.42466597     13.003621      1.007578       79047.249    
     19000   4.940722      -0.43749599     12.740433      0.9814043      79335.13     
     20000   4.9860893     -0.42385448     12.924635      0.99806331     79397.546    
     21000   5.0442855     -0.42038275     13.063902      1.0058478      79434.115    
     22000   4.9487547     -0.41901709     12.89783       1.0046578      79203.658    
     23000   5.0009377     -0.41951217     12.979373      1.0000077      79622.853    
     24000   5.0695428     -0.41968785     13.153883      1.0136069      79510.67     
     25000   4.9930218     -0.43225283     12.910023      1.005652       78575.408    
     26000   4.9937875     -0.40108384     13.043574      1.0071788      79813.203    
     27000   4.9894009     -0.402193       12.983452      0.98841502     80612.212    
     28000   5.0169689     -0.40811984     13.109098      1.0226887      79101.633    
     29000   4.9190249     -0.41955759     12.699983      0.97493392     79503.767    
     30000   4.9853907     -0.44184041     12.817323      0.98714939     79068.091    
     31000   4.9999737     -0.42554004     12.966342      1.006294       79050.883    
     32000   5.0310776     -0.4012429      13.159303      1.0097335      80412.898    
     33000   4.9984838     -0.43023443     12.887203      0.99269036     79152.18     
     34000   4.9690089     -0.43120796     12.83559       0.99571053     78824.912    
     35000   5.0601902     -0.4177522      13.087945      1.0001751      79851.663    
     36000   4.9716158     -0.40945162     12.967837      1.0080247      79289.36     
     37000   4.9551435     -0.43332097     12.762012      0.98313784     79137.195    
     38000   5.0146532     -0.41621127     13.022975      0.99803123     80047.399    
     39000   5.0569709     -0.41976304     13.122604      1.0025361      80222.419    
     40000   4.9725492     -0.43331358     12.896027      1.0106084      78427.447    
     41000   4.958369      -0.41452484     12.889448      0.99739954     79410.597    
     42000   4.9975222     -0.41653838     12.977546      0.99880602     79723.003    
     43000   5.0367978     -0.41338944     13.091783      1.0177753      78929.232    
     44000   4.9724664     -0.43221618     12.83141       0.98490867     79574.858    
     45000   5.0235398     -0.43128091     12.972569      0.98764375     80224.1      
     46000   5.026421      -0.40527854     13.110789      1.0237129      78820.37     
     47000   5.0423199     -0.41592914     13.093144      1.0103406      79451.499    
     48000   5.0262037     -0.43267123     12.975901      0.99720852     79464.457    
     49000   4.9538798     -0.4076333      12.942655      1.0071957      79349.284    
     50000   4.9516019     -0.41431122     12.861077      0.9860955      80068.543    
     51000   5.0350516     -0.40669775     13.162433      1.0398578      78117.43     
     52000   5.0101127     -0.41692682     13.044066      1.016245       78992.897    
     53000   4.9957656     -0.41936389     12.921743      0.9887211      79848.791    
     54000   4.9451447     -0.43074523     12.82647       0.99171594     79499.222    
     55000   4.9993943     -0.41724749     12.943387      0.99735154     79348.481    
     56000   5.0479707     -0.42419921     13.113953      1.0189887      79050.164    
     57000   4.972065      -0.42504673     12.821632      0.97698744     79994.169    
     58000   4.9937671     -0.41916119     12.932212      0.99030179     79902.154    
     59000   5.0085769     -0.41595005     13.070052      1.0326447      78095.45     
     60000   5.0119276     -0.41698631     13.011384      0.99988444     79808.208    
     61000   5.0174169     -0.40895309     13.025709      1.0004472      79737.111    
     62000   4.9365249     -0.42602381     12.760405      0.98303933     79406.345    
     63000   5.0102624     -0.43820648     12.893296      0.98984227     79330.808    
     64000   5.0404105     -0.41210462     13.138754      1.017959       79449.011    
     65000   4.9622633     -0.41128834     12.925584      1.000042       79566.046    
     66000   4.9620036     -0.44113675     12.788292      1.0019098      77975.238    
     67000   5.0294282     -0.42022636     13.013074      0.99201821     80150.928    
     68000   5.0050486     -0.40832032     13.036178      1.0036567      79863.966    
     69000   5.0046305     -0.43433849     12.898791      0.99401345     79134.735    
     70000   4.9923386     -0.45155262     12.759076      0.97287811     79409.864    
     71000   4.9651811     -0.42230484     12.863983      0.98655044     79902.067    
     72000   5.0535601     -0.43030306     13.085315      1.0188042      78654.79     
     73000   4.9817187     -0.42474801     12.872186      0.99874557     78735.04     
     74000   5.0526157     -0.43426245     12.969442      0.98009332     80239.416    
     75000   5.0188921     -0.41392131     13.055057      1.0130734      79171.135    
     76000   4.9171792     -0.41588226     12.805808      0.99675581     79184.208    
     77000   4.9685854     -0.42058674     12.848967      0.9843855      79778.274    
     78000   5.0089013     -0.43506352     12.90453       0.99903575     78737.705    
     79000   4.9649828     -0.4466853      12.769598      0.98657684     78946.071    
     80000   5.0150799     -0.42334026     12.942674      0.98204842     80335.495    
     81000   5.0547458     -0.41448663     13.149026      1.022729       78961.685    
     82000   5.0203764     -0.43199629     12.903496      0.98549241     79527.815    
     83000   4.9674678     -0.39275428     13.000277      1.0083728      79556.044    
     84000   4.9889332     -0.40942962     12.985603      1.0079292      79186.634    
     85000   5.0137123     -0.41392192     13.028981      1.0016337      79828.619    
     86000   5.0281721     -0.43704886     12.923559      0.99222701     79170.66     
     87000   5.0168268     -0.43758281     12.973116      1.0212197      77810.11     
     88000   5.0080174     -0.41383411     12.940604      0.98784462     79850.697    
     89000   4.9253668     -0.41666465     12.81381       0.99434782     79328.492    
     90000   5.0290057     -0.42013547     13.025079      1.0067524      79146.148    
     91000   5.0288506     -0.43096907     12.949429      0.98732928     79820.074    
     92000   4.9755219     -0.42098283     12.899038      1.000289       79050.582    
     93000   5.0370841     -0.40877469     13.118622      1.0180289      79198.594    
     94000   5.0467621     -0.41983551     13.04575       0.98833176     80535.75     
     95000   5.0557574     -0.4181467      13.206507      1.035396       78773.064    
     96000   5.0198411     -0.42444587     12.985515      1.0013452      79283.572    
     97000   5.0154823     -0.41873286     12.990487      0.99350738     79987.811    
     98000   4.9439537     -0.4456128      12.656433      0.96880296     79242.096    
     99000   4.9746068     -0.41498751     12.954197      1.0163152      78475.327    
    100000   5.0646599     -0.4272253      13.050398      0.99711887     79625.555    
    101000   5.0048269     -0.40079777     13.092879      1.0172593      79453.098    
    102000   4.9547624     -0.43559277     12.731569      0.97425868     79475.987    
    103000   4.9571886     -0.41907655     12.800657      0.98036749     79654.594    
    104000   5.004365      -0.46041134     12.799377      0.99434919     78117.693    
    105000   5.0542803     -0.40850449     13.132041      1.0078809      79826.655    
    106000   4.9878883     -0.40030775     13.01318       1.0026037      79876.848    
    107000   4.9554992     -0.42989826     12.812109      0.9886753      79323.988    
    108000   5.0235557     -0.4287942      12.995061      1.001411       79390.567    
    109000   5.0313746     -0.42157341     13.028724      1.0018228      79556.211    
    110000   4.9736596     -0.42029668     12.901412      0.99880415     79228.664    
Loop time of 261.047 on 8 procs for 100000 steps with 13500 atoms

Performance: 165487.372 tau/day, 383.073 timesteps/s, 5.171 Matom-step/s
84.7% CPU use with 8 MPI tasks x no OpenMP threads

MPI task timing breakdown:
Section |  min time  |  avg time  |  max time  |%varavg| %total
---------------------------------------------------------------
Pair    | 36.309     | 36.672     | 37.131     |   4.7 | 14.05
Neigh   | 63.639     | 64.12      | 64.433     |   3.1 | 24.56
Comm    | 81.509     | 82.204     | 83.096     |   6.3 | 31.49
Output  | 0.44418    | 0.48226    | 0.51578    |   3.7 |  0.18
Modify  | 63.361     | 63.462     | 63.607     |   1.0 | 24.31
Other   |            | 14.11      |            |       |  5.40

Nlocal:         1687.5 ave        1753 max        1659 min
Histogram: 3 1 1 1 0 1 0 0 0 1
Nghost:        2046.62 ave        2080 max        2027 min
Histogram: 2 1 0 2 0 2 0 0 0 1
Neighs:        21401.1 ave       23008 max       20580 min
Histogram: 2 2 0 1 1 1 0 0 0 1

Total # of neighbors = 171209
Ave neighs/atom = 12.682148
Neighbor list builds = 32609
Dangerous builds = 0

write_data      final_config_1.data
System init for write_data ...
Generated 0 of 1 mixed pair_coeff terms from geometric mixing rule
WARNING: Not all mixed pair coeffs generated from mixing. Use write_data with 'pair ij' option to store all pair coeffs. (src/write_data.cpp:364)

unfix 1
fix 2 all npt temp 1.0 1.0 $(100*dt) iso 1.0 1.0 $(1000*dt)
fix 2 all npt temp 1.0 1.0 0.5 iso 1.0 1.0 $(1000*dt)
fix 2 all npt temp 1.0 1.0 0.5 iso 1.0 1.0 5

run 100000
Generated 0 of 1 mixed pair_coeff terms from geometric mixing rule
Per MPI rank memory allocation (min/avg/max) = 5.07 | 5.07 | 5.07 Mbytes
   Step          Temp          PotEng        Enthalpy        Press          Volume    
    110000   4.9736596     -0.42029668     12.901412      0.99880415     79228.664    
    111000   1.007652      -1.1074102      1.011672       0.14054032     58375.9      
    112000   0.99566471    -1.5291646      0.44337995     0.14273717     45318.501    
    113000   1.0087538     -1.9875722     -0.015681606    0.16878084     36703.053    
    114000   1.0002467     -2.5175329     -0.59365884     0.18702813     30577.24     
    115000   0.99920182    -3.0161509     -1.0950641      0.21845896     26102.536    
    116000   0.99430253    -3.4860153     -1.3908521      0.3575178      22800.453    
    117000   0.9886427     -3.8935645     -1.5605062      0.55936374     20519.306    
    118000   1.0038508     -4.2156495     -1.6210589      0.76984358     19095.436    
    119000   1.0030622     -4.3976464     -1.6187835      0.93211206     18457.164    
    120000   0.99617398    -4.506657      -1.6927368      0.97471294     18279.118    
    121000   1.0060205     -4.5668581     -1.7387223      0.97866681     18197.641    
    122000   0.9884063     -4.6261828     -1.8105312      0.9930223      18124.015    
    123000   0.99608419    -4.6666094     -1.7692186      1.0503742      18036.966    
    124000   1.0047461     -4.6858385     -1.8791977      0.97167388     18056.521    
    125000   0.99430466    -4.7221488     -1.9457051      0.96228972     18028.679    
    126000   0.9970318     -4.7166325     -1.8329893      1.0379322      18055.885    
    127000   1.0015457     -4.7362211     -1.9069271      0.99505607     18004.686    
    128000   1.0089323     -4.7357145     -1.8872512      0.99952904     18033.382    
    129000   1.0028136     -4.7289246     -1.8211667      1.0483208      18075.822    
    130000   1.00368       -4.7532503     -1.8968322      1.0125161      18013.175    
    131000   1.000026      -4.7609151     -1.9048384      1.0181984      17980.787    
    132000   0.98072605    -4.8063854     -2.0185094      0.99423279     17881.219    
    133000   0.99936258    -4.8252717     -1.992646       1.0037813      17937.028    
    134000   1.004361      -4.8233548     -1.979707       1.0074445      17919.045    
    135000   1.0006178     -4.8248206     -2.0428392      0.96592818     17905.823    
    136000   1.0019751     -4.8288885     -1.9858049      1.0092383      17927.517    
    137000   1.006487      -4.8506565     -2.0972387      0.93518798     17954.987    
    138000   0.99565076    -4.8727378     -2.0748957      0.98613137     17858.101    
    139000   1.0069007     -4.8889787     -1.9750181      1.0628583      17829.509    
    140000   1.0030749     -4.8805805     -2.0687969      0.984379       17928.375    
    141000   1.0028726     -4.9211944     -2.1166255      0.98290244     17860.384    
    142000   1.0000683     -4.9214099     -2.0290906      1.0565851      17789.792    
    143000   1.0027084     -4.9264068     -2.1239531      0.98247815     17842.417    
    144000   1.0026253     -4.9420737     -2.1224888      0.99450423     17860.896    
    145000   1.0090375     -4.9418131     -2.1363923      0.97830806     17828.417    
    146000   0.99639114    -4.9630711     -2.109024       1.0357217      17721.179    
    147000   1.012         -4.9744991     -2.0790713      1.0483986      17738.285    
    148000   1.010728      -4.9805626     -2.1889636      0.96909695     17770.008    
    149000   1.0088022     -4.9788842     -2.1130813      1.0287534      17751.2      
    150000   1.0013551     -4.9860953     -2.0975139      1.056046       17726.417    
    151000   0.99422815    -4.9737763     -2.3143872      0.88112341     17897.748    
    152000   0.99465849    -5.0004198     -2.1631758      1.0236639      17742.593    
    153000   1.0022783     -4.9971178     -2.2219685      0.9635021      17820.288    
    154000   1.0030668     -5.0442902     -2.1766229      1.0422649      17656.653    
    155000   1.0025847     -5.0083127     -2.1374879      1.0437136      17682.34     
    156000   1.0064379     -5.0137129     -2.1212066      1.0557783      17683.614    
    157000   1.0047197     -5.0269636     -2.2313805      0.98111359     17731.184    
    158000   0.99677997    -5.0375573     -2.2225609      1.0083365      17671.83     
    159000   1.0101237     -5.046346      -2.2665014      0.96501281     17693.457    
    160000   0.99381005    -5.0222961     -2.2218304      0.99601005     17753.962    
    161000   1.0088548     -5.0396258     -2.1580211      1.0430187      17711.922    
    162000   0.99999927    -5.0458005     -2.1916521      1.0347033      17669.335    
    163000   0.99966079    -5.0395812     -2.3109018      0.93466478     17755.608    
    164000   0.98903854    -5.0267488     -2.2183149      1.0090686      17726.555    
    165000   0.99732355    -5.0590948     -2.2531675      1.0025284      17641.108    
    166000   1.0042128     -5.0457694     -2.2423311      0.99207672     17652.48     
    167000   1.0042813     -5.0335739     -2.2214809      0.99330783     17746.831    
    168000   1.0027053     -5.0234895     -2.2453318      0.96898114     17752.513    
    169000   0.99883283    -5.0505553     -2.1439716      1.0793234      17616.605    
    170000   0.98682493    -5.0403347     -2.2834722      0.97398757     17696.241    
    171000   1.003213      -5.0477955     -2.2586223      0.98110419     17674.248    
    172000   1.0135714     -5.0474848     -2.1683224      1.0363829      17701.365    
    173000   0.99344866    -5.052615      -2.313824       0.95497735     17652.6      
    174000   1.0024167     -5.0617636     -2.3009462      0.96026704     17675.919    
    175000   0.99969604    -5.0395281     -2.2364786      0.99438751     17698.153    
    176000   0.9979296     -5.0430491     -2.2365944      0.99971382     17685.623    
    177000   0.99404932    -5.0328514     -2.1829427      1.0381317      17671.899    
    178000   1.0001983     -5.0490673     -2.1889615      1.0395809      17659.917    
    179000   0.98775988    -5.0240664     -2.2202733      1.0072855      17721.441    
    180000   0.99804903    -5.0395215     -2.2938547      0.9511451      17723.38     
    181000   0.99351898    -5.0411684     -2.2415032      0.99898671     17696.142    
    182000   1.0088184     -5.0483163     -2.22713        0.99824961     17689.92     
    183000   0.99318598    -5.0581606     -2.177883       1.0638172      17647.037    
    184000   1.0017595     -5.0496607     -2.2803197      0.96690572     17687.327    
    185000   1.0148926     -5.0393528     -2.2415488      0.96970492     17758.291    
    186000   1.0024926     -5.0318659     -2.0862029      1.1009665      17682.173    
    187000   0.99582744    -5.0230235     -2.1728173      1.0319128      17747.401    
    188000   0.98676168    -5.0369691     -2.3366105      0.92774463     17757.47     
    189000   0.99991466    -5.0610258     -2.2365727      1.0115534      17679.091    
    190000   1.0055678     -5.0401343     -2.1273605      1.0722558      17683.476    
    191000   1.0105011     -5.0197998     -2.174016       1.0100123      17778.942    
    192000   1.0005575     -5.0377899     -2.2279105      0.99685561     17729.333    
    193000   0.99337251    -5.0209282     -2.2477182      0.97200262     17823.03     
    194000   0.9993255     -5.0385088     -2.0923131      1.1048553      17684.488    
    195000   0.9901492     -5.0487423     -2.1863789      1.0534409      17649.656    
    196000   0.99090188    -5.0338813     -2.2500444      0.98865355     17718.563    
    197000   1.0023002     -5.046644      -2.1338147      1.0754367      17693.387    
    198000   0.99760423    -5.0223624     -2.1960752      1.0105387      17767.639    
    199000   0.99541348    -5.0357838     -2.3003363      0.94456958     17757.2      
    200000   1.0032357     -5.0629694     -2.2205468      1.0233103      17647.322    
    201000   0.9979126     -5.0413755     -2.1695341      1.0503887      17673.1      
    202000   1.0009306     -5.0610751     -2.2723264      0.98487849     17647.623    
    203000   1.0023843     -5.0378369     -2.1607753      1.0464507      17720.428    
    204000   0.99840825    -5.0408652     -2.2105836      1.0181577      17671.654    
    205000   0.99729631    -5.0367156     -2.2063695      1.0179183      17698.786    
    206000   0.99950565    -5.0613028     -2.2185396      1.0291329      17625.337    
    207000   1.0041095     -5.0417298     -2.2441412      0.98472805     17706.143    
    208000   0.99924952    -5.0297608     -2.2154954      1.0013355      17735.592    
    209000   1.0060494     -5.0494686     -2.2599676      0.97559654     17719.694    
    210000   0.9964925     -5.0225979     -2.2606719      0.96216645     17781.249    
Loop time of 344.353 on 8 procs for 100000 steps with 13500 atoms

Performance: 125452.799 tau/day, 290.400 timesteps/s, 3.920 Matom-step/s
91.2% CPU use with 8 MPI tasks x no OpenMP threads

MPI task timing breakdown:
Section |  min time  |  avg time  |  max time  |%varavg| %total
---------------------------------------------------------------
Pair    | 142.96     | 147.47     | 152.37     |  24.8 | 42.83
Neigh   | 64.462     | 66.508     | 69.178     |  19.9 | 19.31
Comm    | 76.189     | 83.692     | 90.423     |  51.0 | 24.30
Output  | 0.27414    | 0.28595    | 0.2983     |   1.5 |  0.08
Modify  | 37.941     | 38.193     | 38.287     |   2.1 | 11.09
Other   |            | 8.201      |            |       |  2.38

Nlocal:         1687.5 ave        1729 max        1642 min
Histogram: 1 2 1 0 0 0 0 0 1 3
Nghost:        4135.12 ave        4162 max        4093 min
Histogram: 2 0 0 0 2 0 0 0 0 4
Neighs:          96523 ave      101191 max       92401 min
Histogram: 3 1 0 0 0 0 0 1 1 2

Total # of neighbors = 772184
Ave neighs/atom = 57.198815
Neighbor list builds = 14747
Dangerous builds = 0
Total wall time: 0:10:35
