LAMMPS (22 Jul 2025 - Update 2)
# LAMMPS input for LJ binary mixture with Widom insertion
# Equal sigma, different epsilon

# Initialize
units           lj
atom_style      atomic
boundary        p p p

# Create simulation box
lattice         fcc 0.8
Lattice spacing in x,y,z = 1.7099759 1.7099759 1.7099759
region          box block 0 15 0 15 0 15
create_box      2 box
Created orthogonal box = (0 0 0) to (25.649639 25.649639 25.649639)
  2 by 2 by 2 MPI processor grid
create_atoms    1 box
Created 13500 atoms
  using lattice units in orthogonal box = (0 0 0) to (25.649639 25.649639 25.649639)
  create_atoms CPU = 0.001 seconds

# Set masses (both equal to 1.0 in reduced units)
mass            1 1.0
mass            2 1.0

# Set up 50:50 mixture
set             group all type/fraction 2 0.5 12345
Setting atom values ...
  6702 settings made for type/fraction

# Define groups
group           typeA type 1
6798 atoms in group typeA
group           typeB type 2
6702 atoms in group typeB

# LJ parameters
pair_style      lj/cut 3.0
pair_modify     tail yes
pair_coeff      1 1 0.8 1.0    # A-A interaction
pair_coeff      2 2 1.2 1.0    # B-B interaction
pair_coeff      1 2 0.2 1.0 # A-B interaction

# Initial velocities
velocity        all create 5.0 13452 dist gaussian

# Neighbor list
neighbor        0.3 bin
neigh_modify    every 1 delay 0 check yes

# Time integration (NPT)
fix             1 all npt temp 5.0 5.0 $(100*dt) iso 1.0 1.0 $(1000*dt)
fix             1 all npt temp 5.0 5.0 0.5 iso 1.0 1.0 $(1000*dt)
fix             1 all npt temp 5.0 5.0 0.5 iso 1.0 1.0 5
timestep        0.005

# Output including enthalpy
thermo_style    custom step temp pe ke etotal press density enthalpy vol
thermo          1000

# Equilibration
run             10000
Generated 0 of 1 mixed pair_coeff terms from geometric mixing rule
Neighbor list info ...
  update: every = 1 steps, delay = 0 steps, check = yes
  max neighbors/atom: 2000, page size: 100000
  master list distance cutoff = 3.3
  ghost atom cutoff = 3.3
  binsize = 1.65, bins = 16 16 16
  1 neighbor lists, perpetual/occasional/extra = 1 0 0
  (1) pair lj/cut, perpetual
      attributes: half, newton on
      pair build: half/bin/atomonly/newton
      stencil: half/bin/3d
      bin: standard
Per MPI rank memory allocation (min/avg/max) = 3.606 | 3.606 | 3.606 Mbytes
   Step          Temp          PotEng         KinEng         TotEng         Press         Density        Enthalpy        Volume    
         0   5             -4.0407837      7.4994444      3.4586608     -0.088736676    0.8            3.3477399      16875        
      1000   5.0000696     -1.1279151      7.4995488      6.3716336      7.3316565      0.6281239      18.043943      21492.575    
      2000   4.9931218     -1.0603724      7.4891279      6.4287555      4.9817437      0.51904446     16.026669      26009.333    
      3000   4.991468      -0.96219903     7.4866474      6.5244484      3.7680975      0.44257185     15.03854       30503.521    
      4000   5.0062724     -0.88957402     7.5088523      6.6192783      2.9595335      0.38508153     14.304751      35057.511    
      5000   5.0010795     -0.78868352     7.5010636      6.71238        2.4798649      0.34040513     13.99742       39658.626    
      6000   5.008344      -0.72382413     7.5119595      6.7881353      2.1108638      0.30476689     13.714294      44296.15     
      7000   5.0105961     -0.68105048     7.5153374      6.8342869      1.8119368      0.2760406      13.39831       48905.849    
      8000   5.0415322     -0.61442095     7.5617381      6.9473171      1.6424942      0.25266126     13.448093      53431.221    
      9000   5.0406007     -0.54802291     7.560341       7.0123181      1.5115739      0.23373528     13.479351      57757.648    
     10000   5.0249709     -0.51595158     7.5368981      7.0209465      1.3862263      0.21825312     13.372408      61854.785    
Loop time of 21.4317 on 8 procs for 10000 steps with 13500 atoms

Performance: 201570.387 tau/day, 466.598 timesteps/s, 6.299 Matom-step/s
95.0% CPU use with 8 MPI tasks x no OpenMP threads

MPI task timing breakdown:
Section |  min time  |  avg time  |  max time  |%varavg| %total
---------------------------------------------------------------
Pair    | 5.9541     | 6.0578     | 6.145      |   2.7 | 28.27
Neigh   | 7.2544     | 7.34       | 7.39       |   1.7 | 34.25
Comm    | 6.1354     | 6.2539     | 6.4357     |   4.0 | 29.18
Output  | 0.00034775 | 0.00036702 | 0.00045779 |   0.0 |  0.00
Modify  | 1.3765     | 1.4037     | 1.4205     |   1.3 |  6.55
Other   |            | 0.376      |            |       |  1.75

Nlocal:         1687.5 ave        1774 max        1650 min
Histogram: 1 3 1 1 1 0 0 0 0 1
Nghost:        2298.25 ave        2361 max        2233 min
Histogram: 1 2 0 0 0 1 2 0 0 2
Neighs:          27406 ave       30123 max       26620 min
Histogram: 5 0 1 1 0 0 0 0 0 1

Total # of neighbors = 219248
Ave neighs/atom = 16.240593
Neighbor list builds = 3286
Dangerous builds = 0

dump            1 all custom 1000 dump.lammpstrj id type x y z
dump_modify     1 sort id

# production
thermo_style    custom step temp pe enthalpy press vol
thermo          1000
run             100000
Generated 0 of 1 mixed pair_coeff terms from geometric mixing rule
Per MPI rank memory allocation (min/avg/max) = 3.637 | 3.638 | 3.638 Mbytes
   Step          Temp          PotEng        Enthalpy        Press          Volume    
     10000   5.0249709     -0.51595158     13.372408      1.3862263      61854.785    
     11000   4.9986491     -0.50827156     13.069064      1.2507064      65626.021    
     12000   5.0257779     -0.47684709     13.14997       1.1912498      69001.109    
     13000   4.9442613     -0.45790273     12.919961      1.1188646      71936.576    
     14000   5.0650799     -0.44321715     13.203423      1.0979854      74381.115    
     15000   4.9949973     -0.44337402     12.998509      1.0535965      76238.116    
     16000   5.013465      -0.43057132     13.040828      1.0347688      77648.987    
     17000   5.0525497     -0.42122688     13.133612      1.0262205      78622.264    
     18000   4.9688109     -0.41593343     12.909579      1.002479       79087.386    
     19000   4.9877332     -0.42660464     12.892958      0.99347003     79338.05     
     20000   4.9751839     -0.43723285     12.801028      0.98295435     79328.721    
     21000   4.9941444     -0.41670727     12.997624      1.0086826      79281.172    
     22000   5.0694917     -0.39245676     13.291107      1.0317305      79554.216    
     23000   5.0276228     -0.4193461      13.044471      1.0021834      79785.512    
     24000   4.9706965     -0.4453077      12.773927      0.98208175     79230.181    
     25000   4.957402      -0.42651588     12.809108      0.993954       78777.256    
     26000   4.9837698     -0.39290457     13.015188      0.98971592     80927.658    
     27000   4.9834882     -0.41824315     12.945121      1.0030843      79252.814    
     28000   5.0510303     -0.40920867     13.167235      1.0240412      79104.44     
     29000   5.0038127     -0.40473557     13.076076      1.0086851      79976.642    
     30000   4.9824001     -0.42259555     12.898539      0.99595034     79270.199    
     31000   5.0032314     -0.41706089     12.987951      1.0084074      78995.578    
     32000   5.0038547     -0.40443559     13.073587      1.0076555      80020.16     
     33000   5.0106607     -0.41471039     13.010024      1.0104081      78953.786    
     34000   4.9705682     -0.42768988     12.880657      1.0032922      78756.85     
     35000   4.9568005     -0.4377403      12.727773      0.96211408     80413.177    
     36000   5.0011065     -0.41889381     12.966089      1.0005997      79384.754    
     37000   5.0704544     -0.41819941     13.158912      1.0181876      79181.786    
     38000   5.0092288     -0.4133366      13.024684      1.0027188      79767.043    
     39000   4.9359779     -0.42241725     12.820283      1.0010511      78747.531    
     40000   5.012827      -0.43330017     12.875275      0.97882514     79854.441    
     41000   5.0764184     -0.40981708     13.21541       1.0188755      79647.321    
     42000   5.0140399     -0.41380714     13.076202      1.0222137      78837.076    
     43000   5.0335966     -0.41761477     13.041271      0.99741056     79979.285    
     44000   4.9733116     -0.41700504     12.924979      0.99834235     79546.546    
     45000   4.9879067     -0.42318316     12.875796      0.99488464     78942.408    
     46000   5.0031448     -0.40736864     13.057149      1.0052644      80043.429    
     47000   5.0001253     -0.40322785     13.066138      1.0077141      79974.472    
     48000   5.004869      -0.4112423      13.033571      1.0225192      78398.422    
     49000   4.9933446     -0.42010457     12.97484       1.0017804      79582.333    
     50000   5.0068421     -0.42451423     12.935593      0.99109215     79690.28     
     51000   5.0227676     -0.44235131     12.90378       0.99690214     78713.099    
     52000   5.0169548     -0.41617618     13.054057      1.007319       79679.166    
     53000   5.0259312     -0.41589716     13.034357      1.0021024      79643.412    
     54000   5.004105      -0.43502415     12.937888      1.0083693      78551.28     
     55000   4.9741297     -0.4144495      12.913541      0.98870321     80114.24     
     56000   5.0317386     -0.44201351     12.886694      0.97663433     79919.773    
     57000   5.045763      -0.43660635     13.033957      1.0101519      78882.663    
     58000   5.0288261     -0.41443055     13.074067      1.0110878      79388.289    
     59000   4.9580557     -0.42094668     12.834756      0.9826624      79944.844    
     60000   5.0104363     -0.41755767     13.015069      1.0140154      78782.464    
     61000   5.0237184     -0.42336113     13.040273      1.0158506      78787.464    
     62000   5.0023165     -0.41677388     12.919681      0.97984303     80372.814    
     63000   5.0086866     -0.41846163     13.011777      1.0093759      79147.746    
     64000   4.9996734     -0.41986431     13.03129       1.0168541      79022.842    
     65000   4.9984288     -0.42736828     12.908059      0.98616639     79923.212    
     66000   4.9610343     -0.42119583     12.844474      0.99125978     79326.373    
     67000   4.9919698     -0.42377753     12.936063      1.0071713      78713.475    
     68000   5.0483414     -0.38774998     13.187394      1.0059179      80566.31     
     69000   5.0042504     -0.42267385     12.984191      0.99993142     79669.57     
     70000   5.0168342     -0.41781579     13.048215      1.0126918      79202.825    
     71000   4.9561051     -0.42026956     12.85637       0.98874224     79779.071    
     72000   5.0523947     -0.41217504     13.147417      1.0192168      79228.561    
     73000   4.9689091     -0.42257822     12.889058      0.99879996     79189.158    
     74000   5.000357      -0.39811189     13.068561      1.0089639      79834.731    
     75000   4.9868473     -0.41124766     12.943005      0.99192539     79951.816    
     76000   4.9507023     -0.43296451     12.780479      1.0001917      78122.207    
     77000   5.011585      -0.40669098     13.044303      1.0058845      79642.685    
     78000   4.9344238     -0.40701861     12.891298      1.0011663      79519.847    
     79000   4.9620381     -0.42050513     12.842544      0.99436534     79022.603    
     80000   5.0081077     -0.41522924     13.006065      1.0050167      79382.56     
     81000   5.0697116     -0.41376137     13.152919      1.010934       79625.499    
     82000   5.0078236     -0.42831994     12.869509      0.97180704     80386.092    
     83000   4.9926801     -0.42275754     12.971247      1.0203816      78132.314    
     84000   5.0496882     -0.41898906     13.119432      1.0168599      79185.017    
     85000   4.979666      -0.43557696     12.81232       0.97789659     79779.233    
     86000   4.9707073     -0.44111183     12.752229      0.97441327     79494.747    
     87000   4.9534381     -0.41219219     12.899296      1.0008056      79341.479    
     88000   5.0136117     -0.42289093     12.949789      0.98831911     79946.913    
     89000   5.0706888     -0.42517519     13.103232      1.0062675      79461.632    
     90000   4.9759082     -0.42759929     12.895755      1.0120249      78170.612    
     91000   5.0201329     -0.44103068     12.921082      0.9870882      79768.311    
     92000   5.065935      -0.40741498     13.208946      1.0233374      79390.516    
     93000   4.9865815     -0.41941507     12.958942      1.005402       79209.14     
     94000   4.9974        -0.43040692     12.900981      0.9905188      79538.002    
     95000   4.9951743     -0.41376456     12.978833      1.0023239      79470.598    
     96000   5.0275165     -0.42195193     13.02037       1.0162924      78394.446    
     97000   5.0412427     -0.41436934     13.053881      0.99455297     80180.519    
     98000   5.0498386     -0.43035886     13.030503      0.99778232     79646.608    
     99000   4.9321434     -0.41680544     12.798825      0.99696164     78781.88     
    100000   5.0231043     -0.40913798     13.043449      1.0020774      79733.955    
    101000   4.9959491     -0.42716144     12.889775      0.9839974      79896.716    
    102000   5.0052938     -0.44081732     12.886791      1.002601       78369.18     
    103000   4.9916972     -0.43302693     12.839896      0.98003686     79701.171    
    104000   4.9992636     -0.43167505     12.865926      0.98088841     79815.427    
    105000   5.0126866     -0.42331401     12.988558      1.0041188      79234.533    
    106000   5.0292397     -0.41589295     13.02078       1.001193       79465.728    
    107000   4.9950441     -0.40973421     12.966365      0.98862646     80349.037    
    108000   4.9926921     -0.46052668     12.779578      0.98855435     78545.903    
    109000   5.0382364     -0.41908028     13.119243      1.0237263      78879.116    
    110000   4.9963734     -0.41510165     12.93684       0.98583416     80218.501    
Loop time of 173.491 on 8 procs for 100000 steps with 13500 atoms

Performance: 249004.507 tau/day, 576.399 timesteps/s, 7.781 Matom-step/s
93.4% CPU use with 8 MPI tasks x no OpenMP threads

MPI task timing breakdown:
Section |  min time  |  avg time  |  max time  |%varavg| %total
---------------------------------------------------------------
Pair    | 35.818     | 36.013     | 36.271     |   2.5 | 20.76
Neigh   | 64.416     | 64.821     | 65.063     |   3.1 | 37.36
Comm    | 47.893     | 48.376     | 48.943     |   5.0 | 27.88
Output  | 0.39057    | 0.40686    | 0.42431    |   1.9 |  0.23
Modify  | 19.8       | 19.852     | 19.908     |   0.8 | 11.44
Other   |            | 4.022      |            |       |  2.32

Nlocal:         1687.5 ave        1751 max        1635 min
Histogram: 1 2 0 1 1 0 1 0 1 1
Nghost:        2101.75 ave        2187 max        2065 min
Histogram: 3 1 2 0 0 0 1 0 0 1
Neighs:        21156.9 ave       22721 max       19793 min
Histogram: 1 1 1 1 1 1 0 0 1 1

Total # of neighbors = 169255
Ave neighs/atom = 12.537407
Neighbor list builds = 32674
Dangerous builds = 0

write_data      final_config_1.data
System init for write_data ...
Generated 0 of 1 mixed pair_coeff terms from geometric mixing rule
WARNING: Not all mixed pair coeffs generated from mixing. Use write_data with 'pair ij' option to store all pair coeffs. (src/write_data.cpp:364)

unfix 1
fix 2 all npt temp 1.0 1.0 $(100*dt) iso 1.0 1.0 $(1000*dt)
fix 2 all npt temp 1.0 1.0 0.5 iso 1.0 1.0 $(1000*dt)
fix 2 all npt temp 1.0 1.0 0.5 iso 1.0 1.0 5

run 100000
Generated 0 of 1 mixed pair_coeff terms from geometric mixing rule
Per MPI rank memory allocation (min/avg/max) = 5.07 | 5.07 | 5.07 Mbytes
   Step          Temp          PotEng        Enthalpy        Press          Volume    
    110000   4.9963734     -0.41510165     12.93684       0.98583416     80218.501    
    111000   1.0060036     -1.0943925      0.97534375     0.12839023     58971.58     
    112000   0.99243372    -1.5105381      0.50353689     0.15512138     45736.563    
    113000   1.0027497     -1.9852353     -0.041466735    0.16040234     37011.287    
    114000   0.99709102    -2.4987989     -0.6082485      0.17299684     30826.188    
    115000   0.99613225    -3.0053831     -1.1262482      0.19785073     26273.021    
    116000   1.0023023     -3.4863398     -1.4029134      0.34190403     22904.488    
    117000   1.0137164     -3.8956023     -1.5938028      0.51401386     20520.957    
    118000   0.99611249    -4.1942247     -1.6470278      0.74322276     19129.359    
    119000   1.0057598     -4.3748203     -1.613175       0.91508228     18486.953    
    120000   1.012044      -4.4281321     -1.555961       0.99687022     18339.335    
    121000   1.0038122     -4.4905969     -1.6101137      1.0166055      18257.653    
    122000   1.0147853     -4.5246893     -1.6641555      0.99176674     18219.331    
    123000   1.017073      -4.5734904     -1.6573958      1.0324359      18183.283    
    124000   0.98966964    -4.5852395     -1.6909807      1.0487116      18149.096    
    125000   0.99303637    -4.6075754     -1.7590061      1.0103186      18160.795    
    126000   0.99490354    -4.6486707     -1.7842941      1.0238018      18093.131    
    127000   1.0151219     -4.6615774     -1.7613021      1.0298198      18060.461    
    128000   0.99269087    -4.6616508     -1.8133726      1.0134305      18108.054    
    129000   0.99231176    -4.6947015     -1.8677269      0.99926415     18084.641    
    130000   0.99529877    -4.7258629     -1.8780923      1.0172208      17981.933    
    131000   1.0006679     -4.7391938     -1.9588098      0.95625911     18063.263    
    132000   0.99513382    -4.7688799     -2.0443684      0.92320493     18014.352    
    133000   0.99736699    -4.7719042     -1.9798668      0.972737       17987.718    
    134000   0.99834675    -4.7833188     -1.8516708      1.080733       17915.825    
    135000   1.0006334     -4.7917494     -1.9690082      0.99125423     18003.133    
    136000   1.0036904     -4.8152521     -2.0343815      0.95962703     17942.937    
    137000   0.985208      -4.8091746     -1.956395       1.034435       17945.583    
    138000   1.0073455     -4.8140469     -1.9485839      1.0194926      17936.879    
    139000   0.99301058    -4.8410507     -1.9837209      1.0339121      17861.266    
    140000   0.98754787    -4.8559575     -2.0650962      0.98724914     17908.615    
    141000   1.0022331     -4.8545963     -1.9967917      1.0200964      17926.39     
    142000   0.9979016     -4.8729766     -2.0512707      0.99976603     17891.205    
    143000   0.99533806    -4.8750245     -2.1442846      0.93244811     17921.517    
    144000   1.0075464     -4.8682623     -2.0534735      0.98214564     17918.264    
    145000   0.98975931    -4.8684715     -2.0723309      0.98725768     17935.294    
    146000   0.99420871    -4.8590887     -2.0966515      0.95383135     17992.35     
    147000   0.99683019    -4.89844       -2.0765586      1.0033491      17851.297    
    148000   1.0025313     -4.9231547     -2.1000248      0.99848615     17839.505    
    149000   0.99619862    -4.8939553     -2.0756521      0.99909482     17891.761    
    150000   1.0068066     -4.9115772     -2.0828922      0.99729115     17849.275    
    151000   0.99680276    -4.9302002     -2.1193328      0.9986856      17786.328    
    152000   1.0010295     -4.9143422     -2.109227       0.98447246     17877.299    
    153000   1.0026394     -4.9247976     -2.0939526      1.0025499      17868.9      
    154000   1.0097773     -4.9352802     -2.0766164      1.0148939      17879.195    
    155000   1.0068981     -4.9638226     -2.0738691      1.0502505      17735.005    
    156000   0.99796443    -4.9873306     -2.2448294      0.94650481     17766.928    
    157000   1.0008335     -4.9776886     -2.2086604      0.96124183     17806.657    
    158000   1.0099556     -4.9787586     -2.1793976      0.97538743     17778.871    
    159000   1.0005196     -4.9747448     -2.1117825      1.0348316      17771.945    
    160000   1.0087983     -4.9721585     -2.1809461      0.96698945     17843.747    
    161000   0.99819232    -4.9948842     -2.172827       1.0083575      17737.632    
    162000   1.0022228     -4.9801394     -2.2200124      0.95254264     17813.592    
    163000   0.99178917    -4.9822923     -2.1608349      1.0132516      17771.925    
    164000   0.99949308    -4.9708331     -2.0924072      1.0444568      17827.942    
    165000   1.0089443     -5.0067848     -2.2742539      0.9277305      17741.747    
    166000   1.0094838     -4.9763019     -2.1862858      0.96685589     17815.152    
    167000   0.99447866    -4.9842776     -2.1200782      1.0429741      17766.49     
    168000   0.99898309    -5.007955      -2.2740204      0.93684838     17804.597    
    169000   0.99996527    -5.0026844     -2.256639       0.94657093     17773.433    
    170000   1.0046904     -4.9851105     -2.1940379      0.97522071     17776.496    
    171000   1.0111733     -5.0117568     -2.1734742      1.0062289      17731.624    
    172000   1.002999      -4.9681239     -2.066174       1.0603434      17793.385    
    173000   0.99747944    -5.0049562     -2.1507534      1.0348645      17716.596    
    174000   0.99535024    -4.9946741     -2.1533747      1.0256732      17747.555    
    175000   0.9912127     -5.0019364     -2.2198077      0.9855073      17745.346    
    176000   0.99139427    -5.0069604     -2.3049054      0.92271682     17777.389    
    177000   0.98120912    -4.9726369     -2.1782593      1.0002415      17851.772    
    178000   0.99214889    -4.9948315     -2.1728863      1.0140289      17757.614    
    179000   1.0147684     -5.0237851     -2.1667637      1.0186655      17692.022    
    180000   0.98722761    -5.007618      -2.1491299      1.0506882      17702.407    
    181000   1.0033908     -4.9931271     -2.1701007      1.0007517      17780.332    
    182000   1.0070305     -4.9880188     -2.2046429      0.96513941     17805.426    
    183000   1.0065325     -4.9936422     -2.2202663      0.95692363     17827.755    
    184000   1.0060547     -4.9716456     -2.1028678      1.0306938      17810.723    
    185000   1.0005843     -4.9788788     -2.1152385      1.0361443      17756.997    
    186000   1.0097501     -4.9867617     -2.1567195      0.99924346     17773.092    
    187000   0.99479544    -4.9899666     -2.0522901      1.0998342      17744.054    
    188000   0.98755466    -4.9983417     -2.1893521      1.0122745      17707.508    
    189000   0.99246711    -4.9893389     -2.0736445      1.0877575      17711.58     
    190000   1.0005229     -4.9828119     -2.1207843      1.0341029      17772.2      
    191000   0.996278      -4.9845983     -2.1294602      1.0353922      17743.256    
    192000   0.99677349    -4.9945374     -2.2712473      0.93361803     17760.206    
    193000   0.991841      -4.9870896     -2.2023416      0.98467071     17783.413    
    194000   1.0027944     -5.0003193     -2.1761764      1.0042558      17745.326    
    195000   0.99721197    -4.9977347     -2.1860944      1.0049443      17677.694    
    196000   1.001434      -4.9760509     -2.1621403      0.99409659     17815.428    
    197000   1.0149064     -4.9864304     -2.1883576      0.96722501     17807.284    
    198000   1.0080994     -4.9784617     -2.1594938      0.99221431     17782.012    
    199000   1.0029002     -4.9952109     -2.2255955      0.9572234      17845.973    
    200000   0.99759127    -4.9713655     -2.1211118      1.0248989      17834.636    
    201000   1.0011103     -4.9804661     -2.1787266      0.9862702      17796.849    
    202000   0.99218011    -4.975864      -2.0700032      1.0781282      17752.028    
    203000   0.99672331    -4.9998603     -2.1183161      1.0553756      17736.525    
    204000   1.0019195     -4.9775732     -2.1489739      1.0052859      17804.61     
    205000   1.0069158     -4.9990475     -2.2613989      0.93236917     17771.632    
    206000   0.99794879    -4.9676654     -2.184699       0.97225098     17858.64     
    207000   1.0040126     -5.0095215     -2.1923771      0.99801397     17736.926    
    208000   1.015737      -5.0177811     -2.2023086      0.98379229     17729.075    
    209000   1.0043336     -4.974854      -2.1501461      0.99755498     17840.93     
    210000   0.98944242    -5.0017977     -2.2140801      0.99283298     17726.509    
Loop time of 318.221 on 8 procs for 100000 steps with 13500 atoms

Performance: 135754.704 tau/day, 314.247 timesteps/s, 4.242 Matom-step/s
94.7% CPU use with 8 MPI tasks x no OpenMP threads

MPI task timing breakdown:
Section |  min time  |  avg time  |  max time  |%varavg| %total
---------------------------------------------------------------
Pair    | 140.04     | 149.8      | 166.19     |  78.4 | 47.07
Neigh   | 64.624     | 68.05      | 73.952     |  40.2 | 21.38
Comm    | 52.961     | 74.998     | 87.931     | 147.6 | 23.57
Output  | 0.3668     | 0.38472    | 0.40102    |   1.9 |  0.12
Modify  | 20.678     | 20.918     | 21.092     |   2.8 |  6.57
Other   |            | 4.073      |            |       |  1.28

Nlocal:         1687.5 ave        1812 max        1605 min
Histogram: 2 2 0 0 2 0 0 0 0 2
Nghost:        4049.62 ave        4096 max        3984 min
Histogram: 2 0 0 0 0 0 1 3 1 1
Neighs:        96919.4 ave      111870 max       87018 min
Histogram: 3 1 0 0 1 1 0 0 0 2

Total # of neighbors = 775355
Ave neighs/atom = 57.433704
Neighbor list builds = 14767
Dangerous builds = 0
Total wall time: 0:08:33
