LAMMPS (22 Jul 2025 - Update 2)
# LAMMPS input for LJ binary mixture with Widom insertion
# Equal sigma, different epsilon

# Initialize
units           lj
atom_style      atomic
boundary        p p p

# Create simulation box
lattice         fcc 0.8
Lattice spacing in x,y,z = 1.7099759 1.7099759 1.7099759
region          box block 0 15 0 15 0 15
create_box      2 box
Created orthogonal box = (0 0 0) to (25.649639 25.649639 25.649639)
  2 by 2 by 2 MPI processor grid
create_atoms    1 box
Created 13500 atoms
  using lattice units in orthogonal box = (0 0 0) to (25.649639 25.649639 25.649639)
  create_atoms CPU = 0.001 seconds

# Set masses (both equal to 1.0 in reduced units)
mass            1 1.0
mass            2 1.0

# Set up 50:50 mixture
set             group all type/fraction 2 0.5 12345
Setting atom values ...
  6702 settings made for type/fraction

# Define groups
group           typeA type 1
6798 atoms in group typeA
group           typeB type 2
6702 atoms in group typeB

# LJ parameters
pair_style      lj/cut 3.0
pair_modify     tail yes
pair_coeff      1 1 0.8 1.0    # A-A interaction
pair_coeff      2 2 1.2 1.0    # B-B interaction
pair_coeff      1 2 0.2 1.0 # A-B interaction

# Initial velocities
velocity        all create 5.0 12345 dist gaussian

# Neighbor list
neighbor        0.3 bin
neigh_modify    every 1 delay 0 check yes

# Time integration (NPT)
fix             1 all npt temp 5.0 5.0 $(100*dt) iso 1.0 1.0 $(1000*dt)
fix             1 all npt temp 5.0 5.0 0.5 iso 1.0 1.0 $(1000*dt)
fix             1 all npt temp 5.0 5.0 0.5 iso 1.0 1.0 5
timestep        0.005

# Output including enthalpy
thermo_style    custom step temp pe ke etotal press density enthalpy vol
thermo          1000

# Equilibration
run             10000
Generated 0 of 1 mixed pair_coeff terms from geometric mixing rule
Neighbor list info ...
  update: every = 1 steps, delay = 0 steps, check = yes
  max neighbors/atom: 2000, page size: 100000
  master list distance cutoff = 3.3
  ghost atom cutoff = 3.3
  binsize = 1.65, bins = 16 16 16
  1 neighbor lists, perpetual/occasional/extra = 1 0 0
  (1) pair lj/cut, perpetual
      attributes: half, newton on
      pair build: half/bin/atomonly/newton
      stencil: half/bin/3d
      bin: standard
Per MPI rank memory allocation (min/avg/max) = 3.606 | 3.606 | 3.606 Mbytes
   Step          Temp          PotEng         KinEng         TotEng         Press         Density        Enthalpy        Volume    
         0   5             -4.0407837      7.4994444      3.4586608     -0.088736676    0.8            3.3477399      16875        
      1000   4.9865617     -1.1197482      7.4792884      6.3595402      7.3218507      0.62821649     18.01452       21489.407    
      2000   5.0015652     -1.0666062      7.501792       6.4351858      4.9748616      0.51905734     16.019602      26008.687    
      3000   5.0027353     -0.94958072     7.5035472      6.5539664      3.7802355      0.44255018     15.095903      30505.015    
      4000   5.0136516     -0.88661438     7.5199204      6.633306       2.9605063      0.38498616     14.323209      35066.195    
      5000   4.9929129     -0.8080358      7.4888146      6.6807788      2.435457       0.34028197     13.837952      39672.981    
      6000   4.9965416     -0.73690319     7.4942573      6.7573541      2.0909925      0.3047479      13.618738      44298.91     
      7000   5.0027203     -0.66549744     7.5035246      6.8380272      1.8307043      0.2760927      13.468787      48896.621    
      8000   5.0331122     -0.59761343     7.549109       6.9514956      1.6448243      0.25269669     13.460581      53423.731    
      9000   4.909678      -0.57117122     7.3639714      6.7928002      1.462084       0.23365296     13.050303      57777.998    
     10000   4.9390457     -0.52565355     7.4080198      6.8823663      1.3581873      0.21826802     13.104933      61850.564    
Loop time of 22.7476 on 8 procs for 10000 steps with 13500 atoms

Performance: 189910.285 tau/day, 439.607 timesteps/s, 5.935 Matom-step/s
93.4% CPU use with 8 MPI tasks x no OpenMP threads

MPI task timing breakdown:
Section |  min time  |  avg time  |  max time  |%varavg| %total
---------------------------------------------------------------
Pair    | 6.0031     | 6.1188     | 6.1974     |   2.7 | 26.90
Neigh   | 7.3981     | 7.4559     | 7.4932     |   1.1 | 32.78
Comm    | 6.3327     | 6.4348     | 6.5836     |   3.5 | 28.29
Output  | 0.00055725 | 0.00059661 | 0.00075692 |   0.0 |  0.00
Modify  | 2.143      | 2.1745     | 2.2015     |   1.5 |  9.56
Other   |            | 0.563      |            |       |  2.48

Nlocal:         1687.5 ave        1734 max        1647 min
Histogram: 1 2 1 0 0 1 0 1 1 1
Nghost:        2306.88 ave        2325 max        2284 min
Histogram: 1 1 1 1 0 0 0 0 2 2
Neighs:        27425.5 ave       29289 max       25843 min
Histogram: 1 0 1 2 1 0 1 1 0 1

Total # of neighbors = 219404
Ave neighs/atom = 16.252148
Neighbor list builds = 3286
Dangerous builds = 0

dump            1 all custom 1000 dump.lammpstrj id type x y z
dump_modify     1 sort id

# production
thermo_style    custom step temp pe enthalpy press vol
thermo          1000
run             100000
Generated 0 of 1 mixed pair_coeff terms from geometric mixing rule
Per MPI rank memory allocation (min/avg/max) = 3.637 | 3.638 | 3.64 Mbytes
   Step          Temp          PotEng        Enthalpy        Press          Volume    
     10000   4.9390457     -0.52565355     13.104933      1.3581873      61850.564    
     11000   4.9939956     -0.49735115     13.162477      1.2701722      65571.229    
     12000   4.9947861     -0.48783543     13.007346      1.1754344      68951.545    
     13000   5.0151131     -0.47256992     12.986274      1.115325       71858.759    
     14000   5.0160213     -0.45386826     13.007013      1.0793673      74261.09     
     15000   5.0103526     -0.44013644     13.003133      1.0510207      76146.941    
     16000   4.9670406     -0.43009712     12.87929       1.0196713      77575.595    
     17000   5.0419595     -0.43123477     13.068586      1.020308       78560.065    
     18000   5.0190283     -0.43381234     12.940396      0.9979157      79088.859    
     19000   4.963067      -0.4266686      12.832319      0.98939357     79343.218    
     20000   4.9766779     -0.42110495     12.957384      1.0047842      79459.196    
     21000   5.0335181     -0.41072249     13.10854       1.0152854      79375.57     
     22000   5.0349276     -0.40173153     13.092597      1.009369       79479.06     
     23000   5.0104061     -0.41443259     13.020153      1.0021337      79743.542    
     24000   4.9541508     -0.41837872     12.871712      1.0046762      78733.918    
     25000   4.9511242     -0.42903758     12.756112      0.97308571     79897.049    
     26000   5.0050662     -0.42027797     12.972692      0.99403296     79936.993    
     27000   4.9591371     -0.41132318     12.915649      1.0077376      78888.631    
     28000   4.9907736     -0.4409211      12.805698      0.97574189     79707.232    
     29000   5.0321658     -0.41450883     13.07161       1.0096597      79401.791    
     30000   4.9925144     -0.41271944     13.041703      1.0222109      78793.698    
     31000   4.893559      -0.41656597     12.703606      0.97344572     80163.779    
     32000   5.0005936     -0.42422504     12.955853      1.0017565      79237.355    
     33000   5.0236808     -0.41958555     12.996577      1.0069868      78845.314    
     34000   4.9660572     -0.40759141     12.925705      0.98897414     80330        
     35000   4.9845568     -0.42880362     12.890566      0.99689169     79127.651    
     36000   5.0362151     -0.40917217     13.153322      1.0304105      78723.837    
     37000   4.9947412     -0.39175093     13.117014      1.0166978      79898.185    
     38000   4.9936659     -0.42105149     12.940855      0.9998988      79279.518    
     39000   4.9815366     -0.42042369     12.90518       0.99398147     79505.52     
     40000   5.0211615     -0.41282733     13.00077       0.99092714     80139.665    
     41000   5.0213691     -0.42863076     13.019029      1.0194363      78345.463    
     42000   5.032168      -0.42965227     13.008964      1.005959       79056.37     
     43000   4.9869093     -0.40930055     13.032604      1.0099912      79692.056    
     44000   4.994851      -0.43089605     12.896879      0.99213297     79411.457    
     45000   5.0038097     -0.40191693     13.084362      1.0160829      79467.058    
     46000   5.0365466     -0.41691875     13.107913      1.0122601      79626.486    
     47000   4.9434486     -0.43831018     12.780784      0.99651809     78634.153    
     48000   4.9702769     -0.42224587     12.920369      1.0089116      78782.577    
     49000   4.9895295     -0.42161257     12.945642      0.98833174     80365.171    
     50000   4.9751432     -0.41438908     12.940579      1.0031805      79300.668    
     51000   5.0305671     -0.42794445     13.030264      1.0050503      79423.272    
     52000   5.0025877     -0.41595151     12.957862      0.9931181      79800.768    
     53000   5.0064804     -0.41568333     13.03799       1.0180149      78830.749    
     54000   4.9922228     -0.4290484      12.914197      0.99034783     79819.217    
     55000   5.0434698     -0.39636122     13.15605       1.0113781      79925.46     
     56000   5.0333102     -0.4312552      13.061492      1.0210298      78582.532    
     57000   5.0292535     -0.40492622     13.122125      1.0196093      79226.767    
     58000   5.0331433     -0.42070429     13.001001      0.98431815     80542.471    
     59000   4.9847692     -0.42034063     12.968733      1.0091461      79094.984    
     60000   4.9907868     -0.43261174     12.885992      0.99562013     79091.619    
     61000   5.0285418     -0.42167912     13.057486      1.0035486      79864.9      
     62000   4.9727314     -0.41605998     12.936953      1.0041176      79249.004    
     63000   4.979063      -0.42015305     12.941601      1.0074738      78974.882    
     64000   5.0387737     -0.41337728     13.088514      1.0016995      80111.778    
     65000   4.9845654     -0.41563002     12.944228      1.0090749      78713.786    
     66000   4.9653745     -0.42015743     12.930781      1.0110479      78825.43     
     67000   4.9514685     -0.41973265     12.848018      0.98906823     79726.375    
     68000   5.0177162     -0.41775804     13.032241      1.0072295      79399.735    
     69000   5.0241198     -0.40616064     13.068467      1.0120249      79223.922    
     70000   4.9615011     -0.43597682     12.744344      0.97521737     79440.112    
     71000   4.9791609     -0.4159421      12.943415      0.99618968     79834.981    
     72000   5.0523057     -0.43744421     12.970233      0.99363917     79205.85     
     73000   4.9914833     -0.42975776     12.915293      1.0123584      78122.668    
     74000   5.0145268     -0.42474346     12.993562      0.99652232     79888.31     
     75000   5.0169712     -0.4185926      13.000305      1.0028999      79338.91     
     76000   4.9512961     -0.43284984     12.784124      0.98390417     79451.668    
     77000   4.9721039     -0.43075844     12.848334      0.99126222     79282.853    
     78000   5.0172092     -0.40189504     13.114441      1.0192177      79354.556    
     79000   5.0160071     -0.41814462     12.984202      0.99079665     80102.273    
     80000   4.9810338     -0.44276794     12.802002      0.99436546     78387.614    
     81000   5.0047954     -0.43311497     12.887122      0.99242102     79082.974    
     82000   5.064067      -0.41614647     13.168627      1.0103441      80026.877    
     83000   4.9770644     -0.42275421     12.879624      0.99424202     79260.393    
     84000   5.0047636     -0.42186189     12.980889      1.0046185      79232.244    
     85000   5.0018407     -0.41818682     12.975607      0.99515667     79923.538    
     86000   4.9839334     -0.43820914     12.851065      0.99749015     78685.514    
     87000   5.0520009     -0.41388959     13.141997      1.0230597      78889.845    
     88000   4.9926422     -0.42566872     12.91585       0.98482396     80234.631    
     89000   4.9335353     -0.41591962     12.806922      0.99582381     78941.343    
     90000   4.9796252     -0.44207072     12.768455      0.97733569     79309.655    
     91000   5.0265436     -0.42384893     13.008172      1.0001622      79539.41     
     92000   4.9980552     -0.40348505     13.069789      1.0202933      79081.257    
     93000   5.0022012     -0.42190188     12.962069      1.0026396      79187.521    
     94000   5.0306704     -0.40940379     13.061372      0.9942307      80456.12     
     95000   4.9932122     -0.41645484     13.016596      1.0186507      78771.986    
     96000   4.9889462     -0.42912777     12.85552       0.99102929     79033.052    
     97000   4.9794556     -0.42362678     12.813191      0.97303328     80028.637    
     98000   5.0617092     -0.41645681     13.187002      1.0250248      79173.378    
     99000   4.979258      -0.40900674     12.970081      1.0035948      79509.351    
    100000   5.0047241     -0.44052716     12.908488      0.99682922     79124.439    
    101000   5.0201335     -0.41583508     12.995926      0.99645235     79691.312    
    102000   4.9979441     -0.41495645     12.932638      0.98737123     80001.982    
    103000   4.9641609     -0.41187942     13.011246      1.0346106      77995.9      
    104000   4.9852557     -0.4130672      12.969534      1.0034245      79449.09     
    105000   5.0302713     -0.41832479     13.032759      0.99891212     79821.016    
    106000   5.0081039     -0.4307562      12.942588      1.0010228      79052.698    
    107000   4.9677612     -0.4409385      12.790941      0.98357021     79344.276    
    108000   4.982782      -0.41502924     12.903036      0.98822852     79839.853    
    109000   5.0697124     -0.41689605     13.129775      1.0193037      78706.665    
    110000   4.9848346     -0.40302131     13.033011      1.0205893      78828.002    
Loop time of 187.964 on 8 procs for 100000 steps with 13500 atoms

Performance: 229831.143 tau/day, 532.017 timesteps/s, 7.182 Matom-step/s
90.8% CPU use with 8 MPI tasks x no OpenMP threads

MPI task timing breakdown:
Section |  min time  |  avg time  |  max time  |%varavg| %total
---------------------------------------------------------------
Pair    | 36.227     | 36.584     | 36.842     |   3.6 | 19.46
Neigh   | 65.137     | 65.421     | 65.714     |   2.3 | 34.81
Comm    | 53.898     | 54.511     | 54.943     |   5.3 | 29.00
Output  | 0.4162     | 0.45182    | 0.47379    |   3.2 |  0.24
Modify  | 25.458     | 25.565     | 25.702     |   1.5 | 13.60
Other   |            | 5.431      |            |       |  2.89

Nlocal:         1687.5 ave        1734 max        1619 min
Histogram: 1 0 1 0 0 0 2 2 1 1
Nghost:           2073 ave        2124 max        2039 min
Histogram: 2 2 1 0 0 0 1 0 1 1
Neighs:        21483.1 ave       22358 max       20213 min
Histogram: 1 1 0 0 0 0 3 1 0 2

Total # of neighbors = 171865
Ave neighs/atom = 12.730741
Neighbor list builds = 32582
Dangerous builds = 0

write_data      final_config_1.data
System init for write_data ...
Generated 0 of 1 mixed pair_coeff terms from geometric mixing rule
WARNING: Not all mixed pair coeffs generated from mixing. Use write_data with 'pair ij' option to store all pair coeffs. (src/write_data.cpp:364)

unfix 1
fix 2 all npt temp 1.0 1.0 $(100*dt) iso 1.0 1.0 $(1000*dt)
fix 2 all npt temp 1.0 1.0 0.5 iso 1.0 1.0 $(1000*dt)
fix 2 all npt temp 1.0 1.0 0.5 iso 1.0 1.0 5

run 100000
Generated 0 of 1 mixed pair_coeff terms from geometric mixing rule
Per MPI rank memory allocation (min/avg/max) = 5.07 | 5.071 | 5.072 Mbytes
   Step          Temp          PotEng        Enthalpy        Press          Volume    
    110000   4.9848346     -0.40302131     13.033011      1.0205893      78828.002    
    111000   1.009584      -1.1069659      1.0216022      0.14258145     58164.008    
    112000   0.99057612    -1.5373024      0.45287132     0.15077536     45164.303    
    113000   1.002136      -2.0110765     -0.10553624     0.14849543     36587.272    
    114000   1.0036619     -2.501638      -0.63070019     0.16171837     30516.091    
    115000   1.0110581     -3.0083619     -1.0708212      0.21830759     26038.44     
    116000   1.0189653     -3.4938471     -1.3628342      0.35766177     22748.183    
    117000   1.0093799     -3.9397129     -1.5486212      0.57969755     20426.702    
    118000   0.99606443    -4.2228013     -1.5602875      0.82817694     19048.013    
    119000   1.0100184     -4.4009808     -1.5455101      0.98062853     18454.997    
    120000   0.9950809     -4.4833273     -1.6362473      1.0001425      18284.08     
    121000   0.99697032    -4.5482248     -1.7053944      0.99723538     18241.487    
    122000   0.9972584     -4.5956856     -1.7425553      1.0099365      18143.983    
    123000   1.0046021     -4.6422662     -1.7923119      0.99988369     18134.807    
    124000   0.99851518    -4.6833959     -1.7797265      1.0519473      18043.776    
    125000   1.0122405     -4.7042727     -1.8153112      1.0252891      18048.205    
    126000   0.99473287    -4.7284274     -1.9198292      0.98617611     18023.381    
    127000   0.99599837    -4.7466192     -1.9095729      1.0055191      18033.126    
    128000   0.9949844     -4.8007694     -2.0185414      0.97110161     17931.322    
    129000   0.98287872    -4.7805576     -1.9716848      1.0034582      17955.868    
    130000   0.99269832    -4.8329267     -2.1247924      0.91779608     17933.352    
    131000   0.99483182    -4.8217738     -2.0855624      0.9349471      17963.585    
    132000   1.0026951     -4.829415      -1.994862       1.0010934      17943.774    
    133000   1.0031514     -4.8615083     -2.0236226      1.006451       17883.778    
    134000   0.99633303    -4.8846039     -1.9479262      1.0921641      17827.814    
    135000   0.99424111    -4.8909625     -2.0467272      1.0239079      17838.798    
    136000   0.99235365    -4.8913309     -2.1049383      0.98012819     17877.894    
    137000   1.0033491     -4.9056678     -2.0833932      0.99762917     17826.657    
    138000   1.0016044     -4.8742873     -2.019193       1.0193073      17916.862    
    139000   1.0050297     -4.9309905     -2.0172049      1.0678171      17779.976    
    140000   1.0077664     -4.9332091     -2.0906106      1.0106353      17780.223    
    141000   0.98962021    -4.9259309     -2.094587       1.0186627      17851.657    
    142000   1.0007375     -4.9568051     -2.2437897      0.92143706     17757.344    
    143000   1.0073598     -4.928595      -2.0593263      1.0299633      17804.133    
    144000   0.99448321    -4.935593      -2.1917573      0.94441504     17899.956    
    145000   1.0015476     -4.9648429     -2.1339872      1.0070368      17811.38     
    146000   0.99921611    -4.9920395     -2.1492312      1.0275638      17658.548    
    147000   1.0111903     -4.9708948     -2.1387543      0.99850229     17785.447    
    148000   1.0067895     -4.9685534     -2.1537833      0.98790785     17829.011    
    149000   0.99573241    -4.9806468     -2.2167667      0.96272595     17814.305    
    150000   0.99546715    -4.9940784     -2.2135084      0.98141026     17710.206    
    151000   0.99543709    -4.9657467     -2.1512696      1.0031382      17783.526    
    152000   1.0003389     -4.9843757     -2.1639124      1.0037939      17753.537    
    153000   0.99554011    -4.9849887     -2.1938579      0.98664949     17759.165    
    154000   1.0023597     -4.96782       -2.1917089      0.96348726     17832.328    
    155000   1.0009419     -4.9669291     -2.0910209      1.0413345      17820.584    
    156000   0.99745167    -4.98101       -2.1800772      0.99340152     17732.701    
    157000   0.99348468    -4.997072      -2.2056691      0.98961491     17751.718    
    158000   0.99697485    -4.9688161     -2.1288156      1.0206252      17785.923    
    159000   0.99937323    -4.9971899     -2.2539551      0.94537296     17768.501    
    160000   0.99911218    -4.9592413     -2.1779674      0.96839148     17881.895    
    161000   1.0042514     -4.9786242     -2.1836698      0.97674563     17811.495    
    162000   0.99491652    -4.9883835     -2.154881       1.0220812      17715.537    
    163000   1.0040304     -4.9673466     -2.1841097      0.96720139     17828.333    
    164000   1.0044765     -4.9784093     -2.1550174      1.0017417      17745.739    
    165000   1.000286      -4.9876653     -2.162619       1.0066322      17766.008    
    166000   0.99627196    -5.010536      -2.207103       1.0007048      17660.885    
    167000   1.0061172     -4.9650117     -2.1148626      1.018616       17773.774    
    168000   1.0015077     -4.9802578     -2.1427335      1.0166788      17731.805    
    169000   0.99601311    -4.9806343     -2.1231053      1.036819       17755.142    
    170000   1.0073633     -4.9808339     -2.2242333      0.94395647     17814.924    
    171000   1.0099359     -4.9769217     -2.1248957      1.0129574      17821.74     
    172000   0.99738981    -4.9792318     -2.1180633      1.0367501      17776.826    
    173000   0.9964572     -4.9706216     -2.2784305      0.90353121     17894.032    
    174000   0.99504375    -4.9958882     -2.1817395      1.0068667      17721.178    
    175000   0.99589212    -4.9733603     -2.1536475      1.0046577      17817.812    
    176000   0.98735601    -4.9732729     -2.1554803      1.0149965      17781.069    
    177000   0.99044106    -4.9769369     -2.2155024      0.96725441     17807.539    
    178000   1.0053389     -4.9813103     -2.1716724      0.98554751     17831.213    
    179000   0.99775407    -4.9634907     -2.118755       1.0214769      17818.229    
    180000   1.0039329     -4.9869152     -2.1407988      1.019712       17744.653    
    181000   1.0024333     -4.995957      -2.2252763      0.96290356     17765.454    
    182000   0.9887846     -4.9825947     -2.2106992      0.97841697     17782.995    
    183000   1.0058405     -4.976577      -2.2126824      0.94911136     17854.402    
    184000   0.99108056    -4.9783121     -2.1439029      1.0246726      17758.481    
    185000   1.0005959     -5.0020975     -2.2389571      0.96176211     17719.382    
    186000   1.0020956     -4.9859789     -2.0725766      1.0768508      17681.186    
    187000   1.0096718     -4.9918947     -2.1692883      0.99317638     17782.186    
    188000   1.0134233     -5.0091924     -2.1553262      1.0167198      17710.771    
    189000   1.0019589     -5.0140697     -2.1158868      1.0652968      17682.681    
    190000   0.99823671    -4.9808083     -2.1341246      1.026701       17743.66     
    191000   1.0044321     -4.9747756     -2.1612766      0.99057035     17811.954    
    192000   1.0059515     -4.9834661     -2.2320816      0.94087646     17828.784    
    193000   1.0130849     -4.9712012     -2.1410906      0.9923683      17829.11     
    194000   1.0068738     -4.9636438     -2.1357209      0.99774617     17829.461    
    195000   0.995858      -4.9824624     -2.1929148      0.98472962     17765.548    
    196000   1.0003692     -4.9619778     -2.1314402      1.0075647      17821.469    
    197000   0.99709623    -4.9764301     -2.1547152      1.0094805      17735.308    
    198000   1.0073452     -5.0051627     -2.2003436      0.98583965     17718.73     
    199000   0.99977808    -4.9945626     -2.1041921      1.0572207      17759.768    
    200000   1.0044567     -4.9986203     -2.2133861      0.97265122     17747.286    
    201000   1.0072018     -4.9772493     -2.250091       0.92014269     17847.57     
    202000   0.99149487    -5.0089319     -2.2845307      0.94022134     17765.106    
    203000   0.99981902    -4.995056      -2.2339509      0.95871448     17763.457    
    204000   1.0112328     -5.0099444     -2.1690934      1.0081083      17731.768    
    205000   1.0033621     -4.999067      -2.1398814      1.0286922      17772.496    
    206000   1.0053604     -5.0183371     -2.2288393      0.9755844      17734.17     
    207000   1.0218915     -5.0078287     -2.0626263      1.0755992      17728.224    
    208000   0.98105081    -4.9982876     -2.2061512      1.0039086      17759.619    
    209000   0.99352721    -5.0173682     -2.2268215      0.98923547     17745.972    
    210000   1.0007934     -4.9929129     -2.1828074      0.99139111     17825.317    
Loop time of 337.963 on 8 procs for 100000 steps with 13500 atoms

Performance: 127824.520 tau/day, 295.890 timesteps/s, 3.995 Matom-step/s
92.1% CPU use with 8 MPI tasks x no OpenMP threads

MPI task timing breakdown:
Section |  min time  |  avg time  |  max time  |%varavg| %total
---------------------------------------------------------------
Pair    | 138.61     | 149.53     | 165.14     |  75.6 | 44.24
Neigh   | 64.299     | 67.76      | 73.051     |  39.3 | 20.05
Comm    | 62.645     | 83.631     | 98.093     | 136.7 | 24.75
Output  | 0.39568    | 0.42111    | 0.44448    |   2.7 |  0.12
Modify  | 29.79      | 29.992     | 30.251     |   2.7 |  8.87
Other   |            | 6.632      |            |       |  1.96

Nlocal:         1687.5 ave        1787 max        1605 min
Histogram: 3 1 0 0 0 1 0 0 1 2
Nghost:        4047.88 ave        4093 max        3975 min
Histogram: 1 0 0 0 2 1 0 1 1 2
Neighs:        96325.5 ave      109374 max       85593 min
Histogram: 1 3 0 0 0 1 0 1 0 2

Total # of neighbors = 770604
Ave neighs/atom = 57.081778
Neighbor list builds = 14781
Dangerous builds = 0
Total wall time: 0:09:08
