3987
Lattice="54.185901 0.0 0.0 0.0 54.185901 0.0 0.0 0.0 54.185901"
1 45.8526 19.1538 0.773569
1 5.94433 8.31716 0.496211
1 24.044 16.6164 20.6485
1 5.1224 19.1208 10.4846
1 12.7975 8.42003 1.56918
1 31.189 16.0905 49.6507
1 22.8246 17.6787 21.1523
1 7.59471 50.2823 4.20653
1 28.904 37.7084 24.4378
1 53.6017 13.5202 3.94812
1 47.4299 46.4606 11.6588
1 35.1264 13.8375 0.745791
1 36.2422 1.53928 27.9837
1 3.42135 8.24883 10.3737
1 21.6134 15.088 10.5948
1 5.49376 10.8138 0.322249
1 26.0804 8.29379 0.0465287
1 6.07148 8.50716 7.85319
1 11.0369 0.588977 41.8726
1 26.6514 13.2762 41.7251
1 0.954084 2.02379 0.837318
1 45.8443 24.7326 35.3498
1 25.0822 17.7273 43.7198
1 2.3364 53.7764 41.8521
1 7.63605 53.8766 6.54587
1 41.4833 29.9931 11.7388
1 36.8581 24.6245 40.4266
1 8.24682 49.1828 4.74868
1 5.06945 16.587 9.67884
1 23.7002 14.9068 29.7441
1 6.22585 48.5319 3.51993
1 4.35306 7.99815 9.4456
1 19.7005 16.4514 9.99453
1 52.2157 34.4763 6.57607
1 30.1215 14.9335 49.4783
1 46.9955 17.3378 4.65599
1 31.9741 19.3592 46.9387
1 2.15883 0.248536 48.3951
1 41.1354 51.3659 11.712
1 20.8274 17.0537 13.5578
1 22.5506 13.6279 8.80377
1 44.5188 12.8474 8.39868
1 3.94172 50.1582 3.89314
1 31.408 6.39828 27.1109
1 30.0049 40.8944 14.6967
1 30.3247 2.00314 49.6696
1 39.0813 21.9963 15.5829
1 25.9828 46.7329 12.1627
1 11.6955 1.60487 44.0272
1 22.9604 16.0869 28.9927
1 31.9842 32.1901 20.5241
1 29.8114 31.1121 24.8223
1 45.5907 24.1055 32.818
1 26.7017 8.42589 3.36479
1 41.3934 10.6282 9.94805
1 3.58275 17.1493 10.7227
1 53.3608 1.02789 50.5518
1 49.3707 17.1434 3.57845
1 40.3231 3.98578 52.7947
1 1.66736 15.8852 15.0709
1 11.43 38.7639 0.594463
1 4.28172 0.378645 1.22955
1 29.4222 10.802 9.82917
1 36.3033 45.7248 9.89013
1 49.6917 12.4786 8.38181
1 1.59189 4.12505 6.81163
1 6.84837 18.4095 9.20188
1 23.6998 13.7987 10.9829
1 0.696455 23.269 7.86753
1 27.7023 12.2434 23.9556
1 3.80159 15.8738 50.6841
1 28.4841 17.5099 30.9966
1 31.1439 39.9192 14.0643
1 45.8278 16.9467 5.57011
1 1.42206 9.22599 5.19452
1 19.9743 42.6552 4.57567
1 28.9981 9.63147 7.34741
1 47.6309 18.3681 2.11817
1 38.6064 12.0751 7.41741
1 5.2852 6.95742 2.59075
1 26.6987 26.3801 34.6934
1 27.1076 13.2773 13.5188
1 29.9541 46.8246 9.64734
1 22.4826 4.90266 43.9419
1 34.0594 48.8459 6.77861
1 4.35496 8.15026 3.08312
1 8.02174 43.9944 2.49489
1 50.7138 24.808 39.4015
1 30.3099 7.94213 5.67946
1 53.2818 12.3756 5.27695
1 15.3514 19.5908 24.4172
1 4.84368 47.7298 3.27908
1 49.07 2.84775 53.1
1 38.6938 51.4411 10.1664
1 12.6932 18.7844 5.36633
1 39.2354 30.3541 12.5394
1 44.5445 8.45682 17.716
1 35.0775 8.30295 4.33629
1 38.3174 17.5528 4.30413
1 9.96049 8.18285 4.40533
1 29.002 10.0296 44.6636
1 31.3358 37.2178 17.234
1 51.7107 0.167106 45.9445
1 4.9284 24.8001 5.47421
1 40.0862 10.7029 9.25444
1 8.87722 54.2913 39.6373
1 19.5054 16.7222 11.3462
1 2.85582 51.0294 4.5622
1 1.65829 15.4921 13.5254
1 30.065 31.9755 23.7673
1 40.3485 40.1114 11.0146
1 2.96565 9.67243 10.4111
1 14.6892 50.3497 14.9225
1 7.20925 25.6228 4.47712
1 50.7103 16.7152 4.03966
1 14.8627 23.7502 1.24648
1 16.6726 6.54684 48.7843
1 10.5989 23.9143 3.97401
1 52.9158 15.8412 3.12001
1 2.12966 19.9674 22.9899
1 22.163 48.4142 14.5982
1 11.267 6.43302 1.26217
1 18.2741 17.3617 11.7547
1 4.81729 11.8702 0.784747
1 34.748 22.9673 45.567
1 4.95168 29.9297 13.0113
1 10.7172 0.282789 37.8536
1 35.4146 19.24 19.7686
1 8.70694 14.0411 7.23872
1 33.5092 34.4543 17.9062
1 14.4719 16.6589 2.62172
1 7.61997 8.93106 6.01052
1 3.18445 8.09221 3.94013
1 41.6933 24.361 44.561
1 15.5019 49.582 21.6076
1 3.84997 33.8169 2.01868
1 24.5716 11.6426 6.65508
1 6.95312 53.9558 5.27927
1 11.2597 19.6439 12.8289
1 50.9286 11.753 8.16237
1 49.791 53.5986 22.652
1 2.67194 26.2785 5.69335
1 12.7843 19.8876 24.3668
1 5.87151 44.142 2.31153
1 26.7255 7.36261 0.973342
1 31.6229 12.2416 51.2821
1 17.217 17.7269 11.0521
1 4.19517 9.488 2.03431
1 0.705284 0.15426 43.8945
1 15.0313 17.3448 6.58319
1 5.26983 52.2569 4.18444
1 2.52008 11.3819 12.5249
1 21.1734 53.8948 41.2274
1 30.4385 39.0471 16.114
1 5.25303 54.2433 34.3986
1 8.98428 15.3863 7.85272
1 43.4772 3.26299 12.1687
1 16.1523 18.4668 11.7056
1 34.0928 20.9548 47.1509
1 44.9057 3.16169 12.517
1 17.499 18.7519 13.7663
1 2.22916 22.3928 38.9048
1 18.2152 17.634 52.2899
1 24.4207 8.42433 52.2742
1 5.50626 1.64296 12.6514
1 46.3424 3.64055 4.87721
1 37.1781 13.4069 6.32037
1 7.93897 53.633 16.8943
1 29.5058 11.2896 11.1858
1 3.73202 10.6792 9.82941
1 42.7661 18.4253 3.7659
1 16.3376 49.677 16.5118
1 2.2678 0.771895 53.4033
1 6.72323 0.759027 4.19358
1 5.56117 21.2915 25.186
1 9.99969 16.3667 7.25362
1 11.6559 46.2712 4.9616
1 11.2684 25.1388 3.26778
1 23.3086 40.5959 37.2884
1 48.6203 11.6763 9.11554
1 53.5262 50.1355 7.62311
1 48.9321 17.7297 2.33483
1 30.1947 22.0056 23.9573
1 34.8678 8.09347 2.68501
1 7.23725 0.473452 32.8091
1 29.2469 16.1817 31.0406
1 41.7205 4.14979 3.54374
1 22.9889 48.3549 19.6218
1 6.6051 10.7387 7.17007
1 1.62659 2.36958 3.27549
1 2.72432 23.9634 6.50429
1 34.1506 10.0912 27.7336
1 27.2614 13.5095 15.0328
1 51.5354 1.76769 52.3772
1 34.9565 11.6557 1.69866
1 9.11419 20.6254 26.1158
1 43.2609 52.1673 26.7232
1 47.9744 10.3105 16.1285
1 5.033 9.01411 8.6688
1 26.5706 28.1347 36.4857
1 5.20886 2.04388 20.1361
1 44.6443 6.67164 11.3656
1 13.2644 26.03 1.84227
1 6.67585 9.3536 6.85314
1 9.2539 5.88344 4.14239
1 16.8883 18.2876 30.3341
1 48.0049 2.23779 35.372
1 1.70695 13.2239 14.0686
1 4.20798 26.0977 4.95962
1 45.3122 25.7436 39.277
1 12.0511 51.2777 12.5964
1 5.14146 0.254014 2.50744
1 29.406 31.9125 26.0955
1 1.3019 6.86658 6.68098
1 29.4868 38.6249 18.4317
1 34.7841 53.7146 5.95368
1 14.5631 13.2938 1.8856
1 36.2727 23.5996 17.1942
1 23.5835 16.3322 19.2766
1 8.98016 52.5108 10.786
1 45.2379 3.24447 52.9903
1 33.1562 38.2869 13.8128
1 51.3374 17.3289 1.70687
1 11.3495 27.3664 2.16851
1 0.0212649 22.0655 8.60238
1 13.8028 17.0844 3.76001
1 1.46177 22.4372 27.9275
1 13.1958 4.57804 49.5631
1 12.6931 6.12488 15.0595
1 10.3091 21.8896 5.40683
1 11.4692 3.82943 52.8732
1 10.49 51.1349 9.97981
1 20.8651 19.4639 48.1225
1 3.21994 14.7633 11.1233
1 47.7613 3.24384 53.3512
1 9.37178 9.0235 52.3661
1 48.4329 3.1917 1.56213
1 1.20835 3.24305 4.33599
1 6.20645 19.7008 16.7338
1 27.1284 12.8027 42.8551
1 53.9925 2.0448 54.1308
1 31.6298 8.84021 49.785
1 4.51252 4.18706 12.5156
1 9.79351 1.82215 52.4679
1 17.846 14.3735 3.80718
1 8.5654 11.3792 5.9033
1 7.10445 6.60533 6.39804
1 25.7607 16.7251 40.4952
1 50.9214 2.55895 29.2868
1 49.0417 0.582604 46.4298
1 49.3878 0.815366 45.2591
1 11.9135 20.5476 21.9658
1 19.3978 21.8216 50.4084
1 -0.13398 1.34684 30.809
1 7.53862 20.0972 17.6617
1 3.76392 23.0874 31.5274
1 7.59095 54.2971 9.1453
1 44.7743 18.9867 1.69261
1 13.0658 16.9327 38.5938
1 49.8799 3.69279 6.38402
1 44.1651 18.2199 3.9451
1 20.0014 10.7773 52.4629
1 10.8367 20.6669 5.57036
1 35.1117 15.2915 1.19367
1 27.9849 21.6616 28.5148
1 48.0422 35.9204 8.99371
1 19.7755 17.8167 13.9857
1 30.5125 10.9936 12.0546
1 20.4034 18.694 22.1101
1 4.26477 3.6687 13.7818
1 47.4155 40.3456 8.65365
1 13.2436 20.4427 21.4737
1 20.4997 15.3519 9.57558
1 9.28995 20.4934 23.1802
1 2.81545 18.7495 19.0496
1 47.5437 9.38835 10.2747
1 23.99 9.41455 0.157726
1 35.6161 38.1263 13.5464
1 50.8736 1.71004 34.6471
1 18.4425 18.1764 13.0489
1 52.2258 17.4034 0.81269
1 12.7151 19.8907 13.408
1 27.474 19.2336 32.1909
1 16.1672 19.3871 28.0912
1 5.42106 1.93805 15.2199
1 49.7551 6.12281 10.8023
1 11.2669 54.0518 31.762
1 35.5094 47.9328 8.45811
1 26.3802 22.0662 31.9385
1 52.8592 5.22952 21.7613
1 54.0275 54.1686 46.6545
1 26.2396 51.594 36.1931
1 16.5696 51.676 29.4869
1 14.36 20.12 22.2055
1 12.2122 2.06202 46.406
1 22.8797 22.68 44.4503
1 32.9562 9.4688 18.9404
1 4.7403 21.9256 26.2844
1 23.0116 16.6583 16.9575
1 21.7345 17.964 20.3361
1 3.56447 5.58176 14.9946
1 20.3402 22.1757 48.1517
1 49.3963 2.97751 20.298
1 23.9286 14.3766 12.3444
1 45.1541 46.5457 12.4447
1 8.29748 52.9661 9.422
1 15.7325 19.9131 21.6406
1 8.58799 53.5093 15.5756
1 29.704 10.1249 48.6226
1 4.98617 2.25883 13.8062
1 50.4076 16.105 14.1064
1 8.12053 53.0394 20.5071
1 44.7269 0.625704 12.6625
1 -0.194675 6.19328 19.6025
1 13.1498 29.9764 53.3407
1 18.2905 53.1722 33.7626
1 17.579 17.288 32.7169
1 10.5148 53.3938 29.4788
1 13.848 50.6796 23.1335
1 3.31431 20.3332 9.83678
1 11.7618 41.1207 2.00877
1 11.4818 33.8634 53.4315
1 5.8608 0.00177113 43.5544
1 49.3094 4.07667 19.4674
1 41.5601 32.4555 10.6325
1 16.8897 28.8023 49.8908
1 28.1333 47.7549 34.7819
1 6.48636 0.492088 21.4086
1 28.288 18.089 32.2803
1 47.2971 30.3319 9.90399
1 13.8402 34.7864 52.8522
1 29.8169 7.63665 28.2989
1 43.1745 14.6693 23.6561
1 6.96111 0.284918 0.481497
1 39.1091 28.9994 12.7918
1 27.4948 20.0042 30.9151
1 26.4099 15.2972 16.6533
1 50.5913 17.2758 23.0781
1 34.9526 6.877 2.21371
1 3.37207 20.0705 20.9966
1 0.985796 24.5471 31.2177
1 6.41011 53.9484 40.4952
1 28.1913 40.2665 26.864
1 7.87313 21.3402 28.0217
1 13.1518 51.4588 24.5718
1 37.1104 24.5772 33.8787
1 17.3161 20.0856 36.1324
1 26.7555 46.8068 13.488
1 22.3655 23.7526 45.0834
1 0.811332 23.3331 28.8097
1 18.8152 18.9985 15.9313
1 18.9885 19.6872 51.1893
1 25.2649 9.98853 2.34356
1 18.3722 48.7196 25.5289
1 0.42047 23.5547 40.0047
1 49.1272 42.5785 9.19022
1 28.8014 9.75439 42.1776
1 32.6314 4.37996 28.2898
1 2.5019 1.42252 26.5727
1 4.71301 2.433 16.4406
1 11.9715 10.9392 50.0658
1 8.06266 53.9519 19.2583
1 18.6586 18.7804 27.0035
1 6.88326 43.1525 2.26134
1 17.1617 15.8498 5.59636
1 35.9058 9.65674 6.0059
1 24.5264 14.0106 28.8878
1 32.1055 12.4975 26.6416
1 6.84262 21.7894 27.0906
1 49.6648 2.91654 29.9827
1 31.514 49.659 43.1216
1 16.1002 17.1786 8.94222
1 28.9843 17.6966 28.5067
1 7.59004 53.864 35.1477
1 46.0695 1.377 48.8861
1 4.90026 2.82939 18.6584
1 15.3969 18.3402 32.4753
1 26.2739 14.4193 15.4306
1 7.55081 0.0176942 26.1031
1 0.630755 24.6936 35.8813
1 25.2227 28.2387 39.8249
1 3.87908 6.74962 12.6314
1 50.7673 42.9388 7.21811
1 18.7233 16.7229 33.487
1 26.0704 23.6085 31.8881
1 16.2768 19.165 13.0925
1 3.90322 18.3458 12.7496
1 48.4463 22.4287 45.9924
1 27.9869 26.817 37.5617
1 30.6449 6.53112 28.1462
1 5.09515 1.01059 27.0425
1 31.7339 6.97078 47.611
1 14.0975 14.3304 4.02347
1 35.7053 34.0732 14.7782
1 11.3508 51.9499 22.8918
1 2.66318 7.99643 14.8331
1 36.5098 31.8648 14.7156
1 2.74001 12.3396 11.3913
1 5.24358 3.62593 11.3926
1 2.54358 31.7957 3.09339
1 13.5708 19.733 28.0704
1 31.7297 8.48114 21.1523
1 9.12024 0.848366 50.3045
1 26.9596 14.6128 20.3957
1 52.0159 17.5414 22.6688
1 5.29825 4.26509 10.1877
1 3.42121 21.7845 26.3647
1 26.1971 21.1417 33.2189
1 14.0075 11.1173 45.3205
1 30.4001 9.41472 21.1059
1 10.695 26.3252 2.95785
1 5.1964 1.9246 17.669
1 48.4862 1.03226 21.5083
1 38.434 3.63013 50.8959
1 10.9002 7.98749 3.32459
1 10.7182 51.4999 12.4862
1 9.33313 33.3575 54.2575
1 15.6564 50.4155 27.4298
1 27.4619 15.9935 46.3254
1 1.56922 23.9704 29.8548
1 3.12831 6.94034 4.82147
1 44.6075 18.5037 13.7368
1 20.7114 18.9652 20.804
1 7.64611 20.2108 37.1547
1 42.8215 48.9102 33.1358
1 53.1821 24.8128 32.6139
1 25.6793 7.75431 53.0612
1 42.8723 3.33581 52.1214
1 31.2965 8.52251 7.5564
1 42.5005 44.0203 11.1489
1 2.59279 3.54123 19.6941
1 30.0497 25.6094 37.6326
1 13.3904 16.1291 4.97578
1 48.9291 52.3282 24.6807
1 0.230203 20.6546 24.5677
1 28.0297 28.4473 27.7612
1 14.5905 0.779735 38.3957
1 48.4935 2.27905 34.0947
1 19.5565 19.2359 19.8023
1 28.7892 19.8827 27.3803
1 48.4629 47.2612 28.8587
1 9.36118 0.969213 43.657
1 14.0448 16.0977 39.3046
1 19.8132 18.996 18.3894
1 13.5098 53.302 32.4548
1 8.67326 53.4025 18.1876
1 27.3439 22.3043 29.6396
1 24.7885 5.6327 36.4261
1 22.9173 15.1066 12.8638
1 6.63318 0.156552 14.1214
1 36.4453 4.57297 51.7839
1 3.00589 52.2245 5.11314
1 1.16909 13.4355 15.4018
1 26.45 26.9516 37.5927
1 6.76379 0.356883 18.9769
1 6.91297 0.101715 23.8833
1 14.1161 19.9513 23.7624
1 25.1444 32.2688 39.3107
1 3.83824 12.0197 2.00182
1 51.837 52.981 21.3969
1 2.86035 6.28327 16.3563
1 31.5026 14.059 29.01
1 7.87771 53.3261 14.3811
1 16.3006 19.6825 26.6868
1 5.83399 1.4314 29.642
1 3.40602 11.9881 10.1064
1 12.5263 50.7682 22.4626
1 49.6118 13.8526 7.76125
1 30.3698 10.0733 9.24542
1 8.36109 19.4532 8.03326
1 11.8498 19.7702 32.7972
1 43.4546 1.18016 22.7045
1 20.9903 17.7274 27.3589
1 14.5816 52.3859 28.1994
1 36.4342 18.0898 53.2433
1 6.98531 21.9132 33.3145
1 2.46988 2.21979 23.0522
1 7.51495 0.665102 10.4204
1 18.04 28.1071 49.7219
1 26.0719 17.5362 36.8892
1 50.41 14.4955 6.77926
1 43.3197 7.5265 11.2285
1 52.2784 17.0667 12.6486
1 45.3563 34.5748 9.25474
1 4.93626 5.6439 10.473
1 0.223219 26.7922 6.55019
1 26.0072 47.5654 9.51432
1 8.35411 21.2987 20.9892
1 33.628 27.8912 18.8135
1 48.2017 2.39766 21.0149
1 21.0214 17.8182 16.5662
1 25.8362 45.9612 5.06397
1 29.2695 8.95515 6.03772
1 29.0262 20.5767 26.2342
1 42.0864 36.9351 10.654
1 26.7483 46.0102 27.8882
1 41.536 6.21096 19.3952
1 30.5915 17.6411 23.8023
1 22.7026 40.3233 38.3257
1 13.8225 19.6689 26.6043
1 12.6057 19.9648 14.9267
1 35.7774 35.4853 14.4625
1 28.1321 12.2664 13.1087
1 11.2399 37.5101 0.0518623
1 5.67872 22.5736 33.1969
1 2.23574 0.689496 32.8565
1 30.4267 12.1253 17.7653
1 18.3976 19.9879 20.4313
1 16.1716 17.8197 34.6642
1 54.1702 1.99311 52.6943
1 4.32093 1.15236 29.9224
1 31.2149 25.6201 35.3607
1 36.3531 3.42049 24.751
1 2.21499 17.1679 17.2539
1 0.997808 27.7278 5.51284
1 2.23929 9.01317 13.9284
1 2.53877 21.2408 8.96738
1 49.8512 1.79064 33.7023
1 28.4715 26.9963 27.8331
1 49.329 46.7958 10.1156
1 53.3827 -0.0650828 44.1306
1 19.0781 0.363119 36.1318
1 47.087 7.46272 11.2236
1 32.0188 45.4391 49.0102
1 9.45827 52.2353 20.9067
1 47.7027 6.10182 18.7887
1 24.3467 8.77605 34.223
1 29.2373 44.3463 13.8267
1 1.36687 8.4732 16.7192
1 4.9439 27.203 15.3306
1 3.22472 17.9405 17.6795
1 9.44472 20.4797 32.6749
1 18.5593 20.1037 36.5004
1 7.9909 19.1441 38.1761
1 43.1884 39.0504 10.8565
1 34.6871 33.6855 16.126
1 26.5053 13.5584 44.1705
1 6.22366 1.02597 20.2438
1 11.4738 20.0797 26.3087
1 6.69188 0.522802 30.6609
1 9.62318 20.5945 34.1188
1 27.4454 19.5784 44.2422
1 18.364 12.3632 1.75619
1 10.4595 20.3743 24.071
1 17.5818 52.5873 31.4976
1 25.5231 12.9165 29.2866
1 49.7706 49.4623 11.1818
1 25.0706 15.6478 17.201
1 7.69481 19.2241 51.7607
1 6.23155 1.01751 32.0008
1 7.31021 21.5067 31.9365
1 27.1226 28.0569 32.5315
1 50.2094 25.5245 36.8583
1 29.9372 5.72459 30.5823
1 6.93543 21.3168 23.2179
1 49.5786 18.1647 0.0407636
1 12.7934 20.9962 4.10365
1 8.88592 7.7104 52.6009
1 21.625 12.4477 34.5397
1 27.0243 11.8127 27.8998
1 25.9127 2.58457 38.3313
1 52.9773 24.8589 38.6924
1 6.06833 0.695096 22.8804
1 6.13276 22.2253 29.6479
1 5.16578 29.1859 2.89757
1 31.456 36.2593 18.3271
1 31.6268 4.2538 29.3142
1 10.1789 54.0053 30.6269
1 50.5718 11.2761 21.101
1 34.2186 24.0579 43.4301
1 4.93631 19.1646 41.1281
1 50.8997 8.38944 21.6029
1 29.1971 2.73982 34.8322
1 9.53077 0.501679 33.3275
1 8.17065 0.967338 0.0819272
1 27.6464 42.679 25.7945
1 12.4794 51.0387 21.008
1 10.0718 3.97663 1.23406
1 0.471502 17.1167 0.0365483
1 29.5205 23.7988 41.7703
1 12.7503 52.7596 30.1503
1 13.7954 18.2868 8.80626
1 6.17349 21.354 35.4104
1 52.7242 21.2255 26.1105
1 8.14153 20.8269 25.0907
1 5.65433 21.3047 23.7271
1 20.6331 15.2061 33.5666
1 47.7225 24.5531 33.6013
1 3.19359 23.81 32.6183
1 51.4354 23.9919 42.0988
1 51.9287 21.1989 45.5286
1 15.4995 8.24435 2.8305
1 5.60367 20.7187 37.7795
1 1.05631 16.8185 19.2011
1 17.4865 53.1037 32.7771
1 4.83394 17.0087 46.1816
1 13.8046 18.2224 34.4654
1 52.8209 28.5747 6.92119
1 4.78435 19.5966 39.722
1 9.55131 21.0559 21.7838
1 52.9944 21.4254 44.3094
1 35.1813 27.3164 16.783
1 35.7818 22.7281 46.4372
1 42.4909 8.18672 26.3419
1 20.3262 14.7019 34.8241
1 52.3671 54.196 42.8417
1 19.6555 13.586 37.3368
1 28.1313 24.0254 27.496
1 2.61181 53.8943 40.5174
1 50.1621 0.951126 41.1532
1 32.7506 35.1577 18.715
1 24.7229 15.9279 23.0865
1 51.7418 2.19965 30.4321
1 4.45017 5.61182 11.9843
1 16.005 53.3673 33.0645
1 13.5785 10.74 47.8373
1 0.861641 24.0295 37.5108
1 20.4232 2.81432 40.1207
1 51.4144 24.8787 34.2617
1 28.1295 19.427 29.6577
1 50.5386 22.0017 27.5071
1 53.1424 44.5745 4.44547
1 38.987 40.409 11.5305
1 21.6151 14.417 32.7604
1 15.0134 19.7805 15.1377
1 11.2439 17.8157 37.3568
1 7.54722 21.6954 29.5057
1 47.8263 21.5941 48.3732
1 25.2895 18.7911 39.3481
1 6.63508 0.114358 16.6668
1 12.4617 17.8053 36.4703
1 6.32689 20.6997 36.7336
1 52.1829 6.5486 21.3267
1 10.9193 19.9369 30.5867
1 52.4371 46.3815 5.91577
1 6.63395 31.1755 1.39301
1 8.03044 53.8479 22.9762
1 15.8225 53.7278 34.5251
1 13.3622 20.5497 19.9429
1 30.7353 43.5472 12.2055
1 25.4427 53.8681 37.7047
1 12.4951 53.2437 31.4333
1 44.8824 6.66523 26.7722
1 9.77566 2.95027 0.506831
1 26.0964 23.8758 35.618
1 28.4898 18.1434 29.7966
1 39.2897 21.1439 50.9779
1 15.027 1.22471 40.6615
1 7.93783 53.8758 28.7496
1 7.13347 0.458607 7.8198
1 12.6894 18.5008 35.2911
1 7.84155 0.257627 29.9217
1 10.5198 51.7722 14.8948
1 1.09161 0.122747 42.3275
1 1.63084 31.3648 4.3314
1 12.0371 19.537 29.8564
1 51.6243 0.692532 40.8299
1 20.0009 18.5113 26.5414
1 49.1262 23.3217 43.6759
1 17.4325 2.39475 41.0701
1 23.3618 14.5977 31.1907
1 53.6127 16.8587 0.980226
1 47.4729 3.99975 29.5519
1 22.083 18.8532 45.9284
1 53.6994 0.497197 47.9293
1 22.1976 6.7922 38.4153
1 9.71369 18.1003 39.6302
1 50.3565 3.4377 11.3493
1 5.12816 22.2519 28.7986
1 12.0447 52.3181 27.5861
1 3.03886 23.2792 30.1995
1 11.7568 17.5913 38.682
1 44.942 21.697 28.3548
1 3.65174 9.19461 38.838
1 28.581 17.822 45.3756
1 26.9672 41.7596 30.6448
1 2.89022 19.8144 42.2905
1 11.8741 52.9988 28.9994
1 16.3785 0.184725 36.9477
1 8.49837 20.8422 34.8991
1 19.8265 52.3707 32.1652
1 11.6072 20.0822 23.2676
1 23.4834 16.6185 23.3415
1 29.3222 16.5905 47.5807
1 2.02436 1.19539 0.614573
1 53.9403 22.3945 42.3232
1 7.23026 30.029 1.99802
1 6.94666 14.9667 48.2871
1 18.8679 19.1277 24.1391
1 0.186905 11.3434 4.49209
1 27.101 46.113 31.3652
1 16.6721 0.143595 35.415
1 47.0755 3.69489 7.34749
1 15.6472 7.0083 49.6673
1 16.6987 7.75248 47.9317
1 50.21 13.7172 22.1476
1 46.9497 0.917805 44.814
1 7.56734 53.9685 21.5829
1 31.1558 26.72 22.659
1 0.421686 21.2219 42.1157
1 35.8147 22.5968 29.8096
1 21.4055 28.7703 45.0379
1 45.1784 11.5076 15.5553
1 8.49384 32.3171 0.53821
1 23.8454 0.123088 37.7077
1 51.7544 7.81852 9.83893
1 15.979 13.4313 2.23164
1 18.5138 48.9257 23.9885
1 48.4054 0.720198 44.2028
1 14.9549 0.540675 37.0449
1 48.8272 24.1677 42.5879
1 43.1622 3.68202 1.89776
1 9.34494 19.1114 38.4964
1 2.25896 7.65748 16.1121
1 27.6908 50.9477 36.8355
1 3.70685 1.43388 27.4102
1 47.8931 43.1786 9.62187
1 12.6759 11.0081 3.00533
1 25.2125 52.9707 36.4963
1 24.8942 51.5897 34.3924
1 48.4436 1.33956 42.8425
1 3.88392 54.0675 39.9993
1 45.3229 6.13364 19.5536
1 7.32315 0.54347 27.6642
1 3.09499 2.09376 2.73853
1 53.3834 45.8856 4.86544
1 18.1051 53.7 35.0701
1 45.3942 4.41612 11.7947
1 27.4367 13.4442 45.5401
1 52.8196 23.8372 30.2485
1 5.01825 22.1675 35.3965
1 52.1924 1.16412 39.4527
1 16.5882 26.7401 52.4647
1 8.70499 20.4276 36.2459
1 17.8757 23.7293 51.5933
1 9.86324 52.0248 22.3027
1 49.3484 9.93195 16.5418
1 49.295 1.35999 40.0532
1 48.0111 1.96898 40.4994
1 48.1869 23.2606 44.906
1 11.591 18.9206 8.70773
1 10.041 20.658 17.5164
1 49.0567 7.26805 23.8101
1 50.0374 24.3408 41.6212
1 17.1068 21.4055 53.3424
1 8.98876 20.9362 27.4641
1 14.8477 17.1764 36.6517
1 12.6103 50.4248 11.1148
1 52.726 0.56708 41.7298
1 34.4532 37.5734 14.0132
1 3.69162 48.6702 3.24256
1 51.209 45.7032 7.98776
1 26.3221 19.0313 34.2205
1 12.8463 19.2031 9.42355
1 11.0809 20.7016 16.6522
1 27.0697 9.81662 5.77116
1 4.51529 21.5282 37.849
1 27.8334 9.65154 28.7327
1 25.4482 4.573 46.3129
1 47.0262 3.44045 30.7869
1 23.5789 12.6794 8.448
1 40.088 22.6645 48.7521
1 3.49595 20.3107 39.6791
1 45.6377 19.7361 53.6144
1 27.6745 11.4919 43.0738
1 48.0637 7.99958 10.4532
1 16.1141 15.1714 39.5296
1 0.795827 20.4488 43.3754
1 50.9092 0.0330471 43.451
1 16.1027 17.5683 43.4909
1 32.8139 19.1803 48.2744
1 14.2287 3.81397 46.6867
1 0.58644 2.23267 24.5722
1 9.67978 11.4788 51.0555
1 24.5299 30.6002 41.3413
1 30.1058 9.30247 38.2861
1 7.47842 15.7475 46.247
1 22.158 26.2495 45.4411
1 49.4565 23.2917 29.9293
1 5.46537 12.5464 8.50999
1 26.0291 14.9145 43.9512
1 31.3276 25.9353 34.002
1 50.1159 43.4408 8.52523
1 22.3004 9.57869 52.5955
1 14.8643 17.4614 35.2407
1 23.4615 22.7179 43.1535
1 17.3223 1.00016 37.657
1 1.20752 24.9594 33.6692
1 51.6999 16.659 2.87441
1 12.3766 7.32913 0.777672
1 4.0882 0.254861 45.2331
1 7.48087 18.6976 40.322
1 9.62275 52.2984 15.9229
1 0.178065 20.0474 48.4456
1 49.9437 0.901215 47.6192
1 17.6296 39.1105 54.016
1 15.9079 49.769 12.6905
1 25.7843 44.2934 3.25956
1 25.3308 12.0943 30.3137
1 14.7644 3.10072 45.4582
1 28.076 35.2136 27.7802
1 37.9236 4.27211 52.0669
1 4.45474 18.6763 43.8072
1 13.5668 10.9037 1.86628
1 36.208 24.3434 39.2268
1 5.52233 -0.0395184 38.2886
1 22.4988 14.2454 10.0608
1 26.0855 25.6054 36.9989
1 24.4444 34.4113 43.1441
1 5.25362 9.51549 1.08126
1 15.9814 8.47904 50.3722
1 14.9247 50.6199 26.1535
1 21.6769 10.6218 0.333401
1 25.442 37.8037 44.7886
1 7.8127 16.3075 44.12
1 5.2859 0.423347 25.7427
1 6.63268 54.0488 34.0792
1 14.1033 18.759 33.1774
1 52.3119 3.10651 1.67356
1 18.5035 7.66084 49.837
1 16.5107 18.3692 42.5427
1 47.2223 1.73639 37.8194
1 25.8844 27.1528 39.2174
1 11.4617 3.80061 51.353
1 0.663047 0.45902 48.7548
1 43.7369 25.3623 36.6016
1 3.30943 54.0254 42.8438
1 8.91591 19.3547 11.3511
1 22.6178 8.03501 50.5192
1 46.9493 23.9807 32.5893
1 3.10285 0.0659885 44.2917
1 12.5194 3.56188 48.7188
1 3.14127 0.437139 49.4245
1 4.52006 43.5246 1.75879
1 27.904 8.68451 5.45071
1 17.0111 10.458 52.109
1 37.2746 3.21967 50.1691
1 43.9381 48.0483 32.4948
1 9.75539 1.96569 51.1023
1 4.23441 12.9446 9.24318
1 5.90598 19.8347 38.8497
1 51.6354 16.2708 13.6557
1 8.33165 14.4075 48.6639
1 2.64254 47.9573 3.82109
1 32.3791 9.54683 52.0898
1 12.2933 6.13649 52.7461
1 32.5687 51.2295 51.7376
1 6.32464 0.0040025 47.3646
1 42.578 22.5616 48.4663
1 49.9053 15.7538 6.15508
1 44.6923 21.1728 51.23
1 18.173 14.8474 5.1743
1 3.73043 17.7155 46.0058
1 6.02447 15.0893 49.4705
1 9.59137 4.13465 2.56805
1 27.3603 23.7461 41.0818
1 2.55685 0.482634 35.0597
1 15.3387 2.76763 42.3633
1 29.2401 10.3123 47.1541
1 42.949 25.5392 37.8422
1 35.721 42.1206 11.4648
1 1.56012 19.3726 45.8082
1 14.9247 10.1904 53.5138
1 21.0935 13.1558 6.32938
1 10.9707 11.5911 5.25051
1 7.51598 12.2513 51.7208
1 17.2762 19.5906 18.0379
1 22.9022 3.51014 40.5839
1 31.3307 25.2228 38.4003
1 48.9514 19.4433 51.7116
1 17.1295 4.21899 45.6284
1 0.347497 13.5915 2.79721
1 3.91871 2.43863 21.3411
1 3.51352 0.0172632 36.2164
1 9.72671 12.0402 6.04908
1 4.77918 54.1119 47.7873
1 45.6765 43.2959 10.5972
1 25.6493 21.9608 34.3542
1 50.5397 1.9143 51.2376
1 10.4168 2.97826 53.2704
1 52.5452 3.5887 10.4545
1 3.51498 18.3116 44.5763
1 10.9847 14.3814 6.17016
1 12.1633 51.1014 18.6145
1 7.05775 21.2172 6.61273
1 7.2062 19.4698 39.2199
1 29.1501 27.3208 25.1808
1 28.9427 21.715 43.5853
1 48.8488 8.80532 23.2481
1 41.2359 22.9888 48.0236
1 43.0006 8.74298 10.557
1 11.8921 52.205 24.2528
1 14.3625 49.1529 9.77417
1 15.4492 42.9167 3.52687
1 16.2973 13.4579 41.0846
1 16.6172 10.952 42.0258
1 8.42827 10.0105 5.58094
1 7.77818 7.51833 5.53692
1 8.01338 17.042 42.8889
1 12.2841 0.737056 37.637
1 26.7485 19.8626 33.2393
1 15.5965 17.2395 42.2764
1 1.35628 54.0831 46.2092
1 7.66531 11.7738 7.11742
1 42.446 15.5862 15.075
1 12.2281 20.4776 17.629
1 31.9342 23.9104 42.164
1 6.6706 2.73131 6.50103
1 39.1093 52.6017 10.5897
1 26.0018 9.6598 3.71666
1 3.69411 18.351 11.3578
1 3.28112 6.67911 14.0208
1 52.6535 25.6085 37.589
1 17.314 16.3723 36.97
1 4.00866 18.9964 42.4114
1 13.952 44.6315 4.64667
1 15.088 19.7 13.559
1 18.3845 31.6267 48.1335
1 17.9444 11.6733 40.2327
1 40.8889 24.834 34.34
1 4.37082 16.7162 48.4448
1 8.75305 3.23553 3.23587
1 5.79764 17.7763 43.9022
1 15.8301 19.3898 17.2788
1 2.70737 2.11205 6.0383
1 11.9462 8.82082 2.88768
1 20.3785 6.09211 45.4123
1 26.5719 0.915087 40.9569
1 2.04805 23.1241 37.5226
1 17.7292 26.2936 51.9803
1 50.1613 21.1902 47.4219
1 32.6876 49.0195 48.9534
1 20.2686 13.0165 3.92149
1 12.5123 17.9388 6.44337
1 41.2753 3.96678 53.8811
1 7.86746 4.93367 4.67126
1 51.7427 44.0011 6.52263
1 8.83806 7.19194 4.73327
1 3.6754 15.2381 53.0374
1 0.123456 52.511 7.7137
1 51.9091 14.9284 5.18353
1 47.5492 0.720648 47.0096
1 31.4282 13.5528 50.9379
1 25.7584 34.4318 38.5952
1 34.9115 52.8453 35.1547
1 17.7433 3.86933 42.6626
1 8.62603 21.0013 19.487
1 5.06814 20.6813 8.0521
1 47.5954 4.19418 9.44959
1 4.64333 10.3923 8.60702
1 1.25103 22.502 39.8459
1 34.7627 18.7131 50.0404
1 10.4776 19.7426 34.9888
1 5.88795 16.9488 45.0881
1 41.9733 24.3018 45.9623
1 7.37683 5.09318 5.9749
1 15.3874 16.0962 38.683
1 38.1833 19.3006 26.8162
1 35.505 7.28381 6.89298
1 48.0061 11.192 23.6597
1 7.98375 54.2595 38.6642
1 30.9348 46.8724 8.43417
1 50.3453 18.8671 51.8044
1 16.487 14.6308 3.13988
1 21.2863 7.8103 38.41
1 3.48754 21.5326 38.9378
1 3.05419 17.6804 14.9369
1 25.0836 25.4608 41.1026
1 35.6983 3.24375 43.9349
1 38.3356 20.3316 27.8979
1 25.7287 41.5287 53.6415
1 9.84002 13.6242 6.51115
1 10.6681 12.5303 48.9327
1 4.07208 22.1692 36.7326
1 45.0852 30.6272 10.6395
1 50.7047 0.212289 44.8328
1 32.9462 5.29598 46.4798
1 6.55289 15.994 47.4742
1 51.1482 3.5072 5.84234
1 15.5969 17.3882 2.08695
1 23.6378 48.0371 25.1167
1 5.60382 14.1584 51.7203
1 1.30458 21.2477 40.9997
1 8.89022 0.846237 46.2928
1 35.3609 29.8287 16.0227
1 28.5119 13.3841 18.8803
1 6.84213 17.8631 42.653
1 4.72339 46.3871 2.50086
1 48.2636 14.61 23.3691
1 35.8071 50.2175 7.91274
1 40.7697 54.0217 12.1192
1 5.92077 26.2662 15.067
1 20.1028 6.67687 47.8746
1 24.344 6.06701 49.2509
1 31.4543 9.73116 10.3485
1 15.5054 9.47544 46.5135
1 44.6195 2.42541 38.8752
1 6.33662 22.2972 6.12889
1 21.3629 37.2314 51.3795
1 31.4184 10.1463 11.6271
1 41.9718 21.7131 28.6345
1 18.8997 36.5579 51.5733
1 48.9884 48.6306 11.935
1 29.3527 3.11437 49.4158
1 27.0548 12.065 10.9076
1 27.1874 5.20961 50.3311
1 18.7465 43.054 4.26515
1 39.0305 36.8331 12.163
1 13.5112 19.888 17.107
1 53.9231 15.8171 2.13156
1 40.0236 37.238 11.4012
1 12.3338 4.79702 50.6533
1 32.6529 49.4261 47.5495
1 49.9143 17.791 1.29173
1 33.3013 52.6331 4.29886
1 34.817 14.8807 22.1748
1 48.1941 0.992613 49.539
1 32.4836 22.8441 44.5607
1 26.761 5.14336 48.9503
1 19.7216 44.6714 6.95065
1 12.877 14.758 4.67128
1 34.6278 36.1395 14.7401
1 24.8413 47.1529 25.2767
1 43.9504 49.2999 29.9495
1 40.2376 18.2804 2.70657
1 36.3953 23.6694 30.7447
1 35.9888 16.4876 24.3584
1 31.2344 16.1651 23.6261
1 4.32269 15.0467 51.6857
1 20.7132 42.369 3.32144
1 27.3131 12.6774 25.3761
1 8.56929 27.6522 2.87087
1 35.7412 6.22275 3.1918
1 35.5978 39.5756 12.8478
1 30.7524 13.7583 31.233
1 25.155 42.4543 1.42452
1 35.0595 18.7961 24.5435
1 7.87005 3.51885 4.44674
1 50.4207 1.88674 19.9735
1 23.3755 41.0932 0.18169
1 21.9103 44.0126 5.89028
1 30.1815 29.2577 23.3142
1 32.6469 3.59509 4.69871
1 5.11277 1.03491 3.89237
1 28.8787 2.2106 47.311
1 45.1094 22.6676 47.8867
1 51.8903 18.1549 53.8687
1 50.0636 18.4087 12.9073
1 17.2264 16.1982 6.91011
1 8.8517 38.9676 1.00174
1 3.20169 1.21931 28.9696
1 30.5435 54.0275 43.7294
1 9.8274 5.45044 2.99001
1 6.58766 26.7094 3.77266
1 22.9031 47.9601 18.2214
1 41.6332 25.1261 35.4922
1 51.7062 3.3333 4.4788
1 50.9125 47.2486 8.16804
1 0.849613 1.17935 33.2885
1 29.1727 7.37788 3.54013
1 26.7989 24.5424 30.968
1 33.4773 47.0724 7.92281
1 18.8124 48.053 10.9627
1 42.9554 49.9558 12.7004
1 4.53909 13.1468 54.0692
1 20.9625 31.2343 45.4899
1 2.99013 13.0875 2.1446
1 36.6813 47.867 9.40295
1 27.0473 2.76647 45.5671
1 32.9456 7.0257 6.53344
1 0.0446001 18.4367 21.4246
1 6.83366 41.9681 1.57576
1 21.7822 35.3694 47.3913
1 17.8392 37.4021 52.2687
1 36.8969 50.3893 8.90636
1 16.211 38.8303 -0.0103643
1 1.57141 11.7764 3.62952
1 33.7599 26.7015 19.3999
1 27.8951 39.6089 23.0999
1 26.52 45.1833 4.19701
1 13.4193 9.68967 1.08087
1 40.4123 4.67436 3.79541
1 3.86735 1.11094 31.1163
1 3.72976 14.2753 54.2061
1 36.3862 2.78436 47.9124
1 28.4707 41.9571 16.8757
1 8.14433 20.659 23.7556
1 6.20495 4.53952 8.03103
1 16.1118 1.85463 41.5569
1 34.5065 41.5139 12.0105
1 31.4726 19.7122 22.6667
1 43.4611 47.9629 49.8547
1 35.9461 20.5626 28.1391
1 51.3674 1.95651 53.7167
1 40.5945 20.064 1.22859
1 0.485437 20.4336 46.0464
1 28.332 44.3786 1.87004
1 50.8822 16.0925 5.14616
1 5.74961 7.22336 1.20484
1 37.4734 2.29536 8.72262
1 15.7438 18.514 31.0261
1 23.7954 24.002 42.5837
1 17.9247 9.73262 51.3393
1 30.9822 36.9264 19.5846
1 8.27509 45.4401 3.08567
1 53.226 6.09402 9.48561
1 9.37484 14.3935 47.7921
1 44.7848 11.6221 9.1418
1 3.35758 44.2189 2.20955
1 28.2067 46.8996 5.80093
1 34.283 40.0444 12.3548
1 28.1878 13.2066 16.208
1 3.74754 0.286619 51.7567
1 3.48735 45.4709 2.83721
1 22.9479 42.3003 2.34857
1 29.2356 6.11902 2.80581
1 7.80596 39.7187 0.986602
1 31.1848 38.5764 14.6235
1 33.157 9.52565 30.6517
1 49.6081 0.434534 21.6995
1 32.7546 8.39375 8.28468
1 48.7663 20.2176 50.549
1 20.0433 41.5973 2.34335
1 28.9174 24.8836 26.6488
1 22.7354 17.5788 22.6184
1 26.6964 46.7726 5.9383
1 25.8631 39.4075 50.0925
1 28.2117 11.8116 11.8185
1 52.2533 0.737318 48.3117
1 11.6214 45.0897 3.98633
1 25.8509 46.9295 14.9134
1 26.1879 47.2003 7.23701
1 24.8715 16.464 42.538
1 7.92866 40.871 1.56691
1 28.6585 45.6858 2.58026
1 28.2285 47.7043 8.26025
1 4.61942 20.1352 9.32918
1 25.4414 21.0781 40.5148
1 30.3694 7.18166 4.57322
1 31.5058 29.7885 21.1946
1 25.9482 33.8007 37.2625
1 17.6636 19.0263 24.638
1 27.0956 12.1266 9.5463
1 18.5083 45.0005 6.10703
1 43.0169 36.2133 9.98925
1 26.9245 44.2701 1.96584
1 22.8235 32.7168 44.5068
1 16.5539 44.9203 4.78099
1 2.18495 19.731 21.6927
1 1.02162 44.213 3.1708
1 3.07516 20.91 23.4534
1 48.8887 12.4902 14.9435
1 26.9918 32.7041 34.6333
1 52.9893 14.8017 4.05878
1 32.2231 48.6308 3.17305
1 50.2945 47.6494 9.45196
1 25.1335 17.4314 41.5294
1 44.439 47.3426 33.5307
1 16.2202 16.9819 7.53719
1 7.40804 20.235 50.8225
1 9.14913 18.0515 8.40747
1 22.4444 45.4029 6.70428
1 13.8016 19.7953 15.7974
1 37.2656 20.9022 28.8281
1 20.8815 41.2142 1.09478
1 41.0467 36.2832 10.9556
1 31.6894 0.153068 48.4834
1 2.81225 19.2773 10.8355
1 9.37296 31.1846 1.2476
1 12.6869 44.0429 4.1426
1 6.57014 39.0518 1.1547
1 36.0187 2.74472 27.1458
1 31.5649 44.6879 52.5392
1 32.6655 48.5273 4.53918
1 32.2499 46.5759 8.61274
1 47.4979 14.5544 14.493
1 50.4552 1.91913 11.2519
1 31.9134 47.0803 1.1657
1 10.1577 19.6353 13.4727
1 52.8173 47.57 6.67056
1 10.5042 43.2437 2.79221
1 3.87672 1.80258 22.6303
1 31.5387 44.9921 10.4472
1 5.45697 17.9024 9.43664
1 31.0525 42.3109 12.8752
1 9.13922 24.2239 4.13141
1 18.0272 44.177 4.79091
1 44.1107 20.4471 53.4897
1 24.0463 44.1866 4.9315
1 21.4242 12.4009 3.54211
1 30.1697 3.00658 51.6969
1 22.6416 21.2999 45.082
1 32.8628 14.7651 22.5137
1 48.5633 15.9512 5.97704
1 22.3346 41.6685 1.09065
1 28.6773 29.459 26.8188
1 31.0334 50.696 42.3283
1 36.7364 10.9296 6.26702
1 12.7279 42.6849 3.57326
1 15.2102 34.6565 52.0374
1 24.0857 47.4889 13.4886
1 8.25876 13.3566 49.7069
1 18.8468 51.2991 29.9704
1 14.1707 42.0729 3.40655
1 39.7043 3.06288 50.5641
1 3.91946 35.2216 1.92104
1 33.0351 9.77274 32.1412
1 29.814 29.5851 24.6713
1 20.2969 47.7882 10.9113
1 7.0196 21.0305 21.7674
1 20.4646 43.5979 5.93743
1 7.66817 0.84186 45.5406
1 28.8583 47.4511 6.95782
1 26.1979 25.3198 35.5157
1 42.4056 26.5191 12.6191
1 2.98615 28.3613 4.3482
1 6.57228 12.3741 52.9221
1 27.7784 45.7435 3.83177
1 8.8008 19.7161 12.7064
1 18.0578 40.3257 1.9649
1 18.933 24.3112 50.6997
1 20.6145 35.0796 48.4449
1 17.8031 24.5284 52.7967
1 25.9741 36.884 37.2542
1 43.3564 4.20613 6.91508
1 6.16062 13.9818 50.3678
1 8.47267 23.4561 5.06918
1 25.9756 37.8201 42.2949
1 13.5494 35.9424 53.781
1 15.3166 44.102 4.42618
1 7.68609 0.221244 52.0268
1 29.4671 4.53437 0.819467
1 17.8301 51.1405 28.9386
1 15.6834 37.5208 53.7649
1 8.55335 25.4022 4.00633
1 2.72878 14.0879 1.28051
1 43.9993 1.76869 41.6224
1 20.1954 40.1624 0.140039
1 23.8989 45.7656 6.90437
1 44.9406 49.7412 28.9684
1 28.8871 42.4734 51.1392
1 2.59627 10.6934 3.6394
1 22.133 42.6513 3.39994
1 27.5841 6.03711 53.3976
1 0.994134 8.31497 18.2218
1 12.495 19.5231 10.7842
1 36.3131 52.6951 7.39495
1 20.2938 48.8703 19.6317
1 14.1775 37.3709 54.1329
1 2.37436 29.5067 3.58954
1 2.19721 25.219 6.45561
1 15.0803 39.5629 0.484017
1 31.6582 11.4778 15.7431
1 24.3812 43.7229 3.63234
1 48.0681 14.249 7.54307
1 14.5271 28.0387 52.5752
1 43.2432 2.77111 39.1726
1 20.4031 45.5981 7.72616
1 26.6952 30.3229 35.598
1 5.61218 2.43305 11.4933
1 41.0092 52.6363 27.6983
1 20.8246 47.0992 9.54411
1 14.0656 18.3489 7.26843
1 8.65586 37.6122 0.561787
1 52.5462 23.9772 9.18335
1 21.4977 36.7792 50.0908
1 35.6219 2.26029 6.64649
1 4.27868 18.4504 16.8528
1 3.74477 10.7278 2.78758
1 32.1917 37.0108 16.0402
1 24.1109 43.037 2.27338
1 25.3472 9.36919 0.728813
1 30.7016 46.6135 3.30896
1 43.1426 0.756546 12.4652
1 6.64475 15.0074 8.85075
1 30.3624 47.1142 6.97669
1 35.5932 51.4497 7.12851
1 8.52094 0.347227 32.4156
1 14.6871 15.9906 5.93192
1 6.39993 37.8428 0.656975
1 31.8748 6.31236 46.3643
1 22.2376 46.8193 9.02212
1 16.3971 9.30239 45.3294
1 26.6837 15.3822 37.9799
1 52.6343 1.54724 32.7364
1 19.3547 49.0917 26.4502
1 5.01658 53.7584 40.8766
1 47.8718 50.6708 13.2196
1 -0.0433337 4.01363 8.80689
1 23.6686 26.5774 42.8362
1 29.7768 40.3202 15.9199
1 54.2254 20.7386 44.6543
1 25.673 46.0212 20.5826
1 51.7336 3.11235 18.3622
1 13.1519 0.483603 38.7777
1 21.3071 33.3309 46.2446
1 27.1324 45.4689 25.2261
1 46.6898 36.5584 9.23958
1 19.9306 48.4241 23.561
1 18.442 49.5129 17.9658
1 49.3815 45.3473 9.50379
1 1.80532 33.9672 3.46448
1 53.6672 38.2787 3.73695
1 28.1336 31.1003 30.6432
1 21.5625 48.6997 21.5493
1 27.6651 42.1237 28.243
1 4.90067 5.74328 3.17731
1 28.5997 13.5469 34.4058
1 12.3333 20.9134 19.1006
1 18.6724 29.2499 47.7471
1 13.8495 19.3932 11.4676
1 32.5118 11.8266 25.5501
1 37.2075 53.3358 31.3623
1 22.4237 41.5424 37.6381
1 26.4708 46.0811 16.1759
1 14.2377 7.9533 52.0579
1 1.08781 0.783019 36.9393
1 0.898855 33.5698 4.44103
1 32.7626 12.0881 27.8328
1 27.2459 44.0389 26.2148
1 16.3832 46.0572 5.98599
1 28.3629 31.3435 28.4395
1 13.0139 40.4475 1.71267
1 45.3722 36.0816 9.53922
1 29.102 11.8118 21.4517
1 28.3704 52.0735 39.1759
1 32.7025 21.7747 21.6146
1 52.8737 2.47267 26.236
1 26.6306 47.3176 10.9078
1 5.3564 27.1326 4.61342
1 28.9653 42.0583 49.6965
1 23.9286 15.6157 15.023
1 20.3235 27.2864 46.881
1 50.0721 35.8077 7.59796
1 30.0406 35.8285 23.2416
1 44.9241 20.0474 26.6796
1 27.7928 37.9126 27.8719
1 31.8597 4.09299 30.6659
1 43.5321 17.0831 24.0453
1 52.6829 10.5833 19.3964
1 23.5493 13.4415 31.8544
1 26.4829 43.0881 1.35298
1 49.0443 24.9497 33.3672
1 26.2982 46.263 29.2298
1 40.9115 23.2739 30.8014
1 28.3792 42.4704 53.7077
1 27.8754 40.3213 21.8448
1 28.148 46.287 13.1621
1 23.6322 25.3734 43.4476
1 2.70698 23.6025 35.2059
1 12.8834 12.3003 45.4586
1 25.0152 24.1192 41.6152
1 28.5715 22.6129 27.4349
1 47.7094 38.9733 8.92745
1 24.7602 46.5693 18.2555
1 3.88841 -0.0223235 46.6032
1 22.9535 16.2865 27.4283
1 29.6832 36.5236 24.5837
1 21.8619 2.73 39.9123
1 6.32378 0.70819 15.3813
1 23.1272 27.7521 43.6738
1 27.6725 40.0452 29.341
1 46.1896 28.3618 10.989
1 27.965 13.6292 17.6644
1 19.84 3.80416 41.2078
1 49.9586 10.8496 22.1762
1 28.5315 14.0667 47.7673
1 23.1581 18.7282 45.016
1 10.7471 20.0004 32.0096
1 50.8058 22.9831 10.4944
1 42.8817 47.3841 12.7437
1 47.8058 22.1195 12.2685
1 49.1332 5.46999 25.8268
1 20.617 35.7868 49.6871
1 16.3422 36.7128 52.5916
1 26.5321 44.9591 18.646
1 34.83 51.3096 5.91975
1 36.0434 22.057 19.3524
1 19.4481 31.8314 47.3872
1 22.218 17.2266 25.3194
1 41.8037 12.7652 23.2491
1 50.9446 36.5785 6.82493
1 17.0853 49.3571 25.9324
1 24.0457 35.986 45.5986
1 21.9514 45.6581 8.02421
1 44.2996 37.0202 10.159
1 50.92 38.0976 6.67105
1 2.80167 37.458 2.30314
1 27.8196 42.5604 17.9283
1 19.3973 49.5178 27.7021
1 37.5952 5.40652 4.88865
1 4.95401 19.652 18.9479
1 15.8989 23.1939 0.365528
1 52.1815 42.3105 4.8144
1 31.7108 52.5425 45.1624
1 42.4031 23.6683 13.0425
1 24.5163 46.8275 12.1346
1 21.8754 49.636 28.3237
1 30.6727 32.4251 21.3227
1 27.4784 45.3028 15.6164
1 49.5338 29.7988 8.40229
1 27.824 39.3218 27.9906
1 47.3261 7.11776 25.6822
1 48.0479 44.5265 10.0358
1 6.37752 19.478 11.2836
1 19.6364 1.64081 38.1597
1 52.9693 3.16707 4.00441
1 26.5071 6.66949 52.553
1 50.2786 27.5153 8.6071
1 1.36661 1.21012 30.5037
1 32.6793 49.76 2.25342
1 11.8942 51.1087 15.0658
1 27.2228 15.6861 35.6498
1 37.3872 30.761 14.1352
1 29.5782 12.1171 36.1623
1 22.6085 36.287 47.7219
1 0.722298 25.5744 6.7556
1 26.8582 29.8211 34.2272
1 24.741 36.5041 44.6715
1 30.7953 5.55822 4.74039
1 9.46451 52.8168 26.9402
1 25.4013 23.7178 38.1877
1 25.6235 46.7813 24.2653
1 20.4204 12.6993 36.5379
1 20.1688 16.6191 31.368
1 41.7966 3.87925 2.08853
1 53.6485 32.0477 5.8662
1 44.1291 32.5951 10.1282
1 26.0759 44.8386 19.9538
1 23.446 47.6205 11.2556
1 12.1482 12.4215 46.4563
1 8.45378 54.0373 37.4212
1 29.2589 35.5215 25.3951
1 37.1227 20.4624 50.0848
1 20.5874 19.8358 49.2897
1 41.473 13.3805 15.8026
1 52.5689 37.7211 4.60193
1 5.48786 41.3237 1.50206
1 52.1246 4.65224 23.0726
1 38.6907 2.45716 48.3736
1 31.2823 11.7577 32.5915
1 26.9953 25.9275 31.1626
1 14.2339 27.3773 53.9651
1 32.942 46.678 52.7053
1 47.9054 34.5778 9.17447
1 23.2976 16.678 24.608
1 39.3821 34.596 11.4866
1 33.0441 10.6855 28.33
1 25.1573 15.7995 18.6955
1 34.0685 24.7899 37.8123
1 22.2839 39.1815 52.9051
1 8.39546 47.9995 3.87324
1 35.9143 27.5208 15.5297
1 45.7272 52.1999 26.3084
1 26.7511 41.6317 32.9997
1 27.6349 2.93533 36.8692
1 10.0187 17.7321 7.26813
1 45.7477 46.5298 31.5963
1 32.8787 33.1026 19.6745
1 28.1922 13.6035 20.3639
1 28.5694 37.5168 26.7753
1 33.1235 28.8554 19.6467
1 47.4175 2.81992 32.9766
1 33.7413 5.91949 23.6658
1 27.5272 44.0007 18.0594
1 53.7859 1.57561 9.76789
1 33.6297 47.7013 53.4273
1 6.32418 6.08445 0.717043
1 53.2304 24.9707 8.43413
1 22.6651 48.3239 15.8768
1 29.0587 39.9682 18.3304
1 8.82067 0.362683 34.7342
1 18.446 16.3225 9.1539
1 22.4648 36.7162 49.003
1 46.6603 38.0273 9.57922
1 29.4876 38.5121 20.7363
1 35.2506 9.26129 18.4272
1 41.3019 25.7239 12.9106
1 51.7598 19.4891 11.8453
1 21.9519 48.599 17.0453
1 27.4255 42.6304 23.2155
1 26.6327 38.4459 41.0947
1 44.4151 38.4118 10.5678
1 51.0592 31.83 7.75361
1 49.0529 33.7756 8.85143
1 26.1041 45.4796 24.2609
1 36.8762 41.2617 11.8786
1 49.8886 53.6282 11.8188
1 27.7984 40.1966 40.1809
1 5.76092 21.0564 20.7717
1 21.2674 22.2561 46.7397
1 29.463 43.1857 14.7181
1 17.4925 46.5895 7.9582
1 28.1205 39.7635 25.418
1 38.3916 52.3823 31.3916
1 30.0033 43.2261 42.3454
1 1.42466 18.7081 20.9229
1 3.57692 4.40243 17.38
1 44.1119 34.0891 9.57042
1 37.1084 4.61595 0.769708
1 32.2686 34.383 19.7517
1 30.3224 38.0645 17.1494
1 21.8164 16.9415 29.5025
1 17.5894 19.3799 26.1028
1 28.6179 43.1206 15.8114
1 50.3856 34.6244 8.33992
1 28.695 47.2909 9.64872
1 9.3539 26.4775 3.2267
1 42.1197 21.2599 51.965
1 17.3378 8.76364 50.5804
1 23.137 51.4458 32.5948
1 10.1655 51.8036 11.1199
1 38.5661 42.863 11.2903
1 25.8062 15.3085 42.5963
1 5.47071 0.281416 50.0979
1 19.1113 11.6303 39.2958
1 29.9278 11.5684 34.7201
1 15.0116 46.1133 6.44479
1 41.2867 24.4072 13.5211
1 34.1082 9.91425 18.1359
1 21.9035 49.0433 26.9094
1 0.17993 2.25614 25.8699
1 10.7894 20.9644 21.1357
1 29.5349 45.4355 11.6149
1 49.3607 22.0733 11.9828
1 34.2772 16.8198 52.1521
1 41.9146 14.1746 23.9246
1 4.92625 6.56606 9.25501
1 19.4825 29.6995 46.7737
1 39.5852 33.1576 12.0732
1 24.9378 46.9333 22.8536
1 38.0291 41.6186 11.2975
1 28.2268 45.2968 35.9844
1 16.7741 41.1591 1.78454
1 28.3142 40.388 19.3994
1 25.6619 19.4177 35.563
1 27.5527 39.85 45.3405
1 29.0253 45.5818 39.0185
1 7.72577 0.885196 50.7183
1 53.1977 4.701 9.64901
1 27.5243 41.626 26.8717
1 0.507278 10.4076 5.53586
1 18.9974 18.8855 22.6121
1 0.76294 2.70649 2.13222
1 0.746766 15.0639 17.4156
1 15.1986 52.8102 30.8232
1 24.3793 47.6941 27.3343
1 1.74611 2.738 22.0593
1 47.8547 2.86146 31.6771
1 33.8576 20.1582 48.2054
1 34.5136 1.25898 31.073
1 18.0973 30.2817 48.5514
1 31.5645 44.3293 48.2655
1 23.6099 10.0548 34.5191
1 50.2005 44.7924 8.45443
1 37.6234 -0.0421001 28.9582
1 43.4404 4.40434 30.5891
1 38.7746 6.31933 30.8795
1 16.3737 35.4871 51.8281
1 24.1671 2.61856 40.5737
1 25.2813 34.3195 41.0871
1 30.056 8.03647 46.3009
1 25.8333 33.6728 39.9241
1 49.8437 31.3354 8.52086
1 32.2312 53.5179 49.7965
1 0.61427 1.84784 28.3955
1 31.6784 10.9244 14.2086
1 24.5245 33.3746 41.9477
1 50.3469 1.90929 36.0721
1 22.1585 34.5744 46.3937
1 26.092 36.5193 39.6553
1 12.3354 15.1216 42.3763
1 9.89435 19.7527 36.3051
1 28.8436 11.6319 46.9256
1 25.971 19.034 36.9542
1 12.1397 19.798 28.5955
1 28.2915 11.0603 44.3594
1 11.5391 13.9555 44.2423
1 8.52868 20.8904 31.6267
1 35.137 4.96391 36.5552
1 53.4068 0.818659 38.9527
1 20.0479 18.8699 25.059
1 14.7708 7.10819 3.048
1 8.80685 18.0865 40.7873
1 18.8476 52.2033 31.0327
1 29.7465 24.5693 40.4418
1 25.6045 4.42365 36.7129
1 54.0836 35.7097 4.78262
1 32.653 47.7216 49.3406
1 36.8109 54.1102 30.1333
1 50.8911 3.04435 2.28497
1 52.1305 43.6583 5.07698
1 6.26563 0.492408 45.867
1 32.2963 15.9614 50.6392
1 14.5218 21.5263 2.02304
1 53.5961 48.565 5.80764
1 27.5365 30.1699 31.6069
1 29.4563 11.374 20.249
1 28.7737 20.4231 44.2735
1 22.1949 15.2965 31.5535
1 15.7802 16.3946 37.3097
1 16.7844 11.5358 0.10735
1 26.0377 14.7383 21.6645
1 30.5364 48.606 41.4349
1 25.6944 23.3242 34.4056
1 36.7179 2.58289 25.8793
1 24.4015 12.2137 31.5409
1 44.4582 52.3208 12.8752
1 22.1461 2.30362 38.7197
1 54.1819 10.3644 6.9943
1 5.92959 54.0034 53.7179
1 35.5388 23.3744 44.4003
1 0.633326 9.16022 7.49903
1 37.206 22.1483 29.438
1 1.48494 16.1667 54.242
1 32.4885 51.0763 50.4872
1 26.5138 14.8203 41.5439
1 15.0747 31.1065 50.4593
1 7.05173 54.0353 11.6837
1 10.4437 2.07065 48.332
1 13.2574 32.3681 52.2758
1 30.5662 8.97872 48.6364
1 13.5904 13.0648 43.0947
1 28.0828 35.7293 29.0879
1 26.9417 39.3584 47.7149
1 17.9329 49.0502 20.5662
1 11.2521 16.6389 40.924
1 32.5009 45.5679 9.6263
1 16.9875 49.2984 21.7775
1 53.03 10.741 7.89871
1 17.9682 17.4375 31.2756
1 14.852 19.1854 28.9064
1 27.3786 41.8832 24.5986
1 32.9802 52.0765 36.4335
1 21.3195 18.2838 24.4998
1 53.8525 2.82709 23.4685
1 37.2087 2.80938 43.5679
1 39.7395 20.5389 28.3091
1 37.2266 24.5276 35.4864
1 25.6379 47.5204 29.4446
1 27.6602 0.12552 41.1962
1 4.36929 0.393598 33.473
1 28.9354 11.2066 24.0043
1 28.8592 47.3485 36.923
1 33.7889 24.4003 40.584
1 26.5129 21.3386 42.5715
1 36.7486 24.0255 44.859
1 40.3316 42.8443 11.1236
1 36.1869 19.6333 18.6922
1 40.923 46.3237 11.9123
1 27.9738 33.3783 29.8502
1 41.9246 50.3707 31.4084
1 13.707 13.4227 3.00768
1 1.38792 19.1604 10.9246
1 29.224 41.8557 44.6159
1 12.4107 15.8801 41.1953
1 26.163 10.9821 29.9551
1 34.2552 6.91503 53.9636
1 20.8392 53.6546 34.281
1 14.2353 29.4789 52.3866
1 47.6128 11.6465 15.4955
1 15.755 8.83954 48.0644
1 28.5463 41.3569 40.7046
1 25.2467 36.4868 42.0118
1 46.6599 4.97314 9.83325
1 28.115 11.9627 45.626
1 32.5654 0.769302 32.5749
1 20.2381 48.5611 21.9435
1 30.0977 38.0157 19.5791
1 21.7572 32.3782 45.4118
1 27.0275 26.7202 29.9812
1 47.208 26.2434 11.0472
1 2.90606 1.39638 25.3034
1 24.468 20.407 43.7123
1 5.06052 18.8369 14.7919
1 25.3764 21.7948 41.7153
1 44.6566 45.5429 11.403
1 3.08417 18.2405 47.1454
1 54.0152 16.8722 21.4272
1 41.9754 53.061 26.6774
1 10.8418 1.84286 46.9452
1 27.8698 37.1638 29.1724
1 8.88064 17.0349 41.6305
1 42.8616 20.7871 27.8252
1 32.3785 24.9651 35.9703
1 42.8289 48.6217 34.4856
1 10.3428 20.2797 25.4985
1 20.2325 50.9742 29.6621
1 33.8067 10.2807 14.42
1 42.9987 31.965 10.7869
1 51.5195 19.507 51.1759
1 48.3512 16.6612 4.56851
1 16.1418 31.2307 49.7158
1 0.496691 6.71597 18.428
1 5.05005 18.9412 13.2924
1 2.87072 5.75436 17.8121
1 7.06142 32.5046 0.876869
1 24.1338 15.8434 25.3751
1 36.8443 36.1352 13.7414
1 16.0889 5.48868 47.8759
1 25.8401 35.8815 38.4468
1 28.0984 40.8003 49.3422
1 25.7594 46.1422 21.9867
1 11.0567 17.5422 39.7686
1 30.4538 10.3213 19.9967
1 28.4818 3.19866 48.321
1 0.624339 22.0053 26.5403
1 15.4883 1.05267 39.3503
1 20.3916 54.3548 35.6411
1 47.3114 12.15 9.01337
1 13.6261 14.2942 42.3064
1 24.8768 15.489 21.7046
1 6.85824 21.1256 25.7959
1 19.9465 6.91565 40.2875
1 53.6798 29.3688 6.22737
1 10.1296 16.5453 41.9246
1 5.62379 3.64056 8.99872
1 26.0489 23.3349 40.9474
1 24.2271 3.04782 43.135
1 4.38273 8.61278 37.8603
1 25.3483 17.3154 39.2422
1 47.2967 53.6321 23.3518
1 14.0829 22.8624 2.01875
1 22.0432 52.9736 34.0922
1 29.016 12.7666 47.971
1 13.4878 17.1536 37.2379
1 7.35631 13.2078 50.6733
1 50.802 23.3423 29.4634
1 21.9458 17.9619 18.9048
1 24.1244 7.55379 35.0029
1 40.98 3.2141 38.5779
1 37.9273 27.1832 13.8331
1 11.7845 19.4254 34.5809
1 16.79 30.0171 49.1044
1 19.9486 17.425 50.537
1 50.8354 53.149 11.1406
1 53.9413 1.36635 32.2256
1 21.1185 48.4819 11.9511
1 26.3309 15.4027 40.2577
1 28.3729 35.9745 26.6463
1 13.297 19.4482 30.7197
1 19.8712 31.0229 46.3334
1 33.1544 30.2725 19.4238
1 27.0799 7.64791 31.7995
1 51.3461 26.6763 8.78711
1 52.7034 18.9978 51.5693
1 18.0113 49.9989 28.0769
1 34.3795 4.15519 47.623
1 54.2546 34.2963 5.26403
1 13.7945 51.4178 25.9538
1 26.9196 21.4869 30.7862
1 26.5073 13.1853 28.1246
1 7.4332 35.4365 0.369042
1 27.1358 47.1825 33.9354
1 52.2595 12.7445 6.2069
1 33.686 5.2394 47.7881
1 2.87683 17.7377 13.392
1 30.0384 34.3559 23.0857
1 26.3253 45.1508 22.767
1 42.9544 48.3313 48.7392
1 24.3348 10.9222 32.3901
1 44.0943 4.05077 4.21878
1 20.12 48.5194 13.1654
1 26.8514 37.1426 32.6143
1 13.6212 50.0764 20.3344
1 22.4548 38.3565 51.609
1 10.8264 0.121522 32.9973
1 30.5137 46.0985 42.7312
1 16.5946 24.3488 53.6837
1 28.2026 40.3451 47.955
1 24.7229 35.7191 43.3055
1 24.8378 2.65541 41.8332
1 29.9711 47.3891 4.41055
1 28.7926 42.8349 40.2383
1 32.1649 41.582 12.4861
1 17.5872 7.87879 46.6289
1 33.8892 49.122 52.527
1 8.65025 29.9671 1.62089
1 5.42704 13.0288 52.8343
1 38.1682 7.33354 28.6513
1 10.9735 10.6814 51.2565
1 8.86918 14.9353 46.6071
1 37.0579 16.9352 24.9035
1 3.18008 17.422 48.4024
1 30.9164 48.4729 42.696
1 33.7308 5.77005 38.4291
1 37.4966 54.1518 9.17147
1 52.6875 3.59355 23.8685
1 19.4613 48.9469 20.9456
1 39.4174 8.37664 9.7279
1 6.48541 7.05506 7.61989
1 46.1992 11.2148 9.25359
1 51.4681 24.1334 30.2976
1 44.4348 9.75364 17.1007
1 9.61243 14.8587 45.2457
1 31.4923 46.5329 45.8768
1 26.1037 24.3566 33.2707
1 6.36023 18.4634 41.4791
1 20.3526 33.1001 47.2633
1 33.4634 47.5564 50.5161
1 2.11029 16.8671 51.9878
1 42.4971 16.6757 5.91583
1 18.0303 48.7002 12.0374
1 27.3681 4.11493 48.0673
1 23.2532 40.421 53.1523
1 52.968 18.2074 52.8882
1 29.7787 47.5911 40.8479
1 48.0983 19.7696 52.9391
1 1.81866 18.8088 47.2018
1 48.9424 1.60686 36.2776
1 38.4095 4.42846 0.320545
1 1.52501 54.2037 39.5538
1 8.95933 34.6663 0.195556
1 6.24347 53.9757 52.4256
1 8.68781 20.9608 30.3459
1 8.83955 11.4773 52.1517
1 25.4351 21.6683 36.8563
1 25.2599 3.55768 44.0308
1 25.8722 38.966 48.6855
1 34.566 5.14962 39.3933
1 1.0311 14.8939 16.0014
1 30.4209 47.4372 43.6419
1 46.262 49.3223 29.26
1 24.4771 40.0293 52.313
1 24.9089 15.1211 24.3593
1 35.8205 3.50315 7.18
1 35.873 9.97047 26.1913
1 31.5371 53.5316 46.3165
1 26.5949 1.83282 43.2459
1 19.1649 35.5699 50.5512
1 18.2756 38.3195 53.0355
1 35.7062 18.5906 51.183
1 52.1431 30.8012 7.30468
1 48.2055 7.8588 17.115
1 25.5841 35.7229 40.9332
1 4.54957 28.5486 4.13922
1 32.5702 45.484 50.4488
1 25.4757 23.0728 36.7242
1 4.95885 54.0529 35.8296
1 43.649 16.2519 14.5955
1 11.7932 11.9362 49.0756
1 48.3387 18.8118 54.049
1 6.50812 1.75005 10.3576
1 14.0622 19.9449 12.7139
1 2.77668 3.18703 20.9496
1 23.7594 38.1273 50.6556
1 24.8203 38.9034 51.2695
1 50.3564 2.19278 32.4429
1 34.9233 48.999 7.79168
1 32.6004 49.7745 50.0981
1 18.1555 6.32256 46.515
1 33.2448 13.9631 23.4302
1 51.0047 51.6694 11.199
1 24.8319 37.6521 47.0306
1 28.9018 43 38.7124
1 2.61818 17.7366 49.8227
1 54.1746 3.36279 4.82845
1 12.007 0.0627153 33.9825
1 29.6083 42.0933 47.3919
1 28.558 38.3269 25.5805
1 30.3642 13.7096 49.9253
1 33.0486 39.2765 12.5778
1 27.257 43.5506 28.4815
1 24.5745 27.969 41.0072
1 28.6761 41.2088 46.8894
1 13.9519 5.72762 15.2853
1 2.58849 16.1229 53.2352
1 11.2859 15.0064 43.187
1 27.1328 44.4949 27.461
1 28.2722 10.384 26.4499
1 15.1986 19.4513 0.777729
1 36.8897 29.4102 14.0719
1 50.7042 1.57158 49.9234
1 38.1206 21.3755 50.1792
1 31.1019 2.49636 1.07466
1 5.32566 16.5181 47.3387
1 52.3136 14.3133 20.4794
1 53.3519 21.9427 26.993
1 14.0493 5.34575 48.808
1 39.9238 2.16516 42.7112
1 20.1118 37.2503 52.0753
1 0.664078 20.1723 10.0523
1 25.5484 41.0582 52.4374
1 53.8299 19.2025 50.8459
1 51.2294 0.672365 47.2964
1 0.100488 17.6708 53.0889
1 26.5896 20.016 43.2028
1 30.5508 3.81009 1.52128
1 26.5722 17.2907 43.954
1 16.2781 47.3485 8.15698
1 46.7961 1.76558 39.3298
1 2.99258 16.9945 50.8637
1 22.9821 35.0043 45.3816
1 18.1122 35.074 49.7478
1 52.3728 10.1255 9.01965
1 23.6398 33.9738 44.1807
1 20.9523 39.4375 53.2998
1 3.25785 23.291 36.7577
1 53.7557 0.153917 9.22155
1 32.9743 4.727 44.0764
1 25.3294 30.2637 37.9685
1 45.7234 3.96184 31.1625
1 51.5368 22.9974 42.9668
1 2.28991 19.0391 44.6803
1 5.16229 3.33839 3.02398
1 37.393 3.68089 37.1128
1 18.8284 41.1956 2.77482
1 49.3747 27.3774 9.49773
1 24.8297 38.1141 48.3972
1 28.3075 44.2533 37.0229
1 25.3506 38.3766 45.9331
1 33.3877 42.1979 12.138
1 0.229517 24.6814 7.84834
1 45.5722 10.4184 16.4799
1 2.39633 53.9208 6.61237
1 36.9916 3.62227 39.7322
1 33.0774 10.7881 52.546
1 41.2141 51.7897 28.864
1 26.7339 47.687 8.34826
1 24.8628 11.1154 5.26325
1 28.5806 4.97572 51.0363
1 7.91018 17.2465 8.86578
1 35.0559 25.8898 17.3901
1 27.4899 40.2469 42.6365
1 7.14747 16.4242 45.2701
1 12.8498 33.7536 52.8083
1 1.27964 0.334741 7.48969
1 20.6538 0.438914 40.255
1 35.6971 4.24633 38.7937
1 46.1648 0.488186 43.7868
1 41.8726 3.11936 41.1198
1 21.9028 15.6314 47.7984
1 25.0668 21.7223 39.4103
1 16.9021 1.3322 39.0592
1 9.06195 22.1984 5.72793
1 49.747 21.7079 46.2204
1 23.7075 37.5718 49.3337
1 52.8563 22.8674 27.9472
1 27.7298 34.704 30.0453
1 18.4671 25.6307 49.7665
1 25.0781 30.7103 40.0407
1 29.443 25.1489 24.1106
1 15.6754 51.4474 28.4203
1 11.1904 0.49623 40.539
1 26.6109 7.87946 2.07147
1 37.4334 8.75205 17.8215
1 33.5892 49.2023 37.5404
1 37.6593 33.578 13.5476
1 29.8653 43.1062 45.2684
1 38.206 25.0184 37.8567
1 33.0486 48.0117 0.615536
1 29.8659 43.3678 51.7357
1 4.9886 22.5606 6.54918
1 42.2714 3.25571 38.1688
1 26.6752 39.0373 46.2737
1 42.311 18.8923 2.42019
1 19.2214 14.3051 5.89991
1 32.0332 0.436659 1.29329
1 4.6226 15.8643 49.4509
1 49.1153 20.8375 48.3591
1 24.895 14.6082 27.5171
1 10.9863 15.834 6.20215
1 38.9836 5.98942 10.491
1 42.5757 14.314 15.5144
1 49.7697 0.68275 42.5208
1 30.6419 43.4249 53.1775
1 21.7701 15.6584 11.8209
1 32.8858 12.2292 52.0894
1 7.70959 51.5482 4.78175
1 9.38378 12.5383 49.819
1 51.7645 49.9054 9.33572
1 46.3127 21.0922 51.7141
1 1.38519 1.18825 51.0413
1 46.39 9.76154 9.61588
1 30.8933 47.3017 5.69425
1 29.9118 42.4516 48.8539
1 25.2531 20.905 38.0455
1 33.5986 24.6506 33.0379
1 9.04082 15.5605 44.2476
1 42.9527 2.04273 40.5872
1 38.0391 4.98032 3.32568
1 34.6726 3.9283 45.8685
1 29.4951 44.4658 0.708722
1 23.7373 9.44488 53.0436
1 35.8577 19.9025 26.9538
1 27.5741 39.117 30.4131
1 30.7102 2.18817 53.971
1 33.9062 5.15744 50.0176
1 35.8709 5.3792 22.6422
1 19.8602 38.3531 52.8711
1 29.8155 43.8048 40.8744
1 1.33157 0.61909 35.5253
1 38.8204 22.3822 48.1498
1 5.49947 54.1248 44.9068
1 30.0253 26.1338 36.1955
1 37.5038 7.84524 18.8296
1 17.0833 34.8575 50.6767
1 29.8891 44.3958 12.6568
1 23.8171 36.8022 46.8136
1 16.8737 12.5153 1.28722
1 7.61786 19.3857 10.4763
1 24.9281 6.72242 50.4864
1 1.8144 14.1784 13.21
1 18.042 42.1928 3.48861
1 9.9102 35.5867 -0.17777
1 32.0184 40.1409 12.7781
1 38.462 50.7292 34.5756
1 25.355 31.6472 37.8774
1 53.5327 23.6737 28.9008
1 26.8436 3.69832 46.6673
1 30.1515 43.0923 46.6356
1 44.5535 17.4132 5.21893
1 1.22382 1.7906 7.63218
1 19.8794 46.2674 8.91916
1 31.8822 53.8412 51.1625
1 21.4751 23.5759 46.2581
1 32.2082 45.6621 53.4421
1 25.2321 19.3626 43.0997
1 52.2882 20.5822 46.7817
1 35.7619 12.2052 4.38781
1 12.4367 22.2595 3.82913
1 18.7153 40.1472 0.525367
1 13.0146 3.04314 47.4237
1 19.6242 25.6981 48.7489
1 22.0354 52.2749 32.6758
1 26.8165 39.4793 43.8153
1 50.7102 21.7277 45.1961
1 31.8696 44.6981 51.2437
1 22.4194 43.6846 4.58616
1 25.8548 12.4788 11.4799
1 42.5734 2.13387 12.1904
1 33.6347 17.983 21.6546
1 24.1281 16.1317 16.3881
1 4.28218 3.84579 16.2523
1 10.2169 18.7169 37.3662
1 20.237 13.2874 5.2589
1 35.2551 6.96458 5.39379
1 41.6233 15.3613 7.61387
1 38.3341 2.43385 9.98898
1 4.53126 21.0498 22.9802
1 6.02968 54.1922 36.837
1 4.25073 0.318184 5.01164
1 36.7882 10.5196 16.514
1 0.478932 53.8645 8.21361
1 1.25226 9.81788 16.6036
1 27.4875 18.1813 44.4615
1 30.5603 11.6082 13.3539
1 13.8649 50.4782 13.7099
1 9.97073 20.1593 14.7652
1 45.6756 1.48772 50.4178
1 15.0438 19.4802 25.9082
1 32.945 16.3819 45.1751
1 27.0827 17.7952 34.6067
1 28.4706 39.6186 20.7858
1 7.80273 7.38473 53.46
1 28.7101 11.7834 38.5177
1 54.0814 49.6948 6.45369
1 40.267 28.1168 12.5038
1 7.44428 19.4939 13.1742
1 39.3722 4.03964 1.4172
1 35.8015 15.645 2.45639
1 40.4343 32.1844 11.5253
1 42.1153 5.34562 12.589
1 21.8975 16.654 14.5396
1 19.065 12.8932 38.4869
1 10.605 20.1677 6.90314
1 38.8378 5.04103 5.50922
1 38.9827 9.65502 9.30303
1 6.52323 20.4158 7.9347
1 26.1056 6.24284 50.9231
1 9.83855 20.9431 18.8205
1 36.6988 13.3116 22.8606
1 47.9251 0.645442 12.2435
1 42.6762 4.04877 4.657
1 41.3346 16.4997 6.89182
1 7.65216 13.028 7.55597
1 11.9856 20.1032 4.83455
1 25.5232 25.0013 38.3598
1 24.6985 45.1622 5.80573
1 22.9062 15.7571 14.0534
1 51.0226 10.5384 9.11387
1 30.4912 12.008 16.3692
1 29.3068 12.148 14.0559
1 51.3903 4.32915 11.0435
1 0.294817 2.33547 8.68814
1 18.4093 8.56579 41.6974
1 15.9711 19.3321 15.8676
1 18.0535 19.0496 52.2829
1 53.5367 2.96084 2.62056
1 46.9388 13.7276 8.3737
1 41.4971 28.6389 11.8907
1 28.0884 8.54996 29.8684
1 32.0541 24.4193 21.9531
1 17.2725 14.655 38.6614
1 13.0792 1.63856 42.1944
1 24.7817 12.9491 10.7299
1 49.1637 2.14564 51.8045
1 39.8721 49.9862 34.592
1 19.8614 10.3332 38.8768
1 52.1043 3.18515 25.2428
1 49.607 23.2493 11.2305
1 36.6936 26.4644 14.6598
1 31.9754 52.6462 52.179
1 28.5534 25.4084 39.7221
1 49.0289 3.98833 11.7203
1 20.6746 48.5465 14.4287
1 27.8862 13.6509 37.0076
1 24.5641 47.3675 14.8837
1 6.7492 0.335261 2.03455
1 15.8092 3.60644 44.6302
1 35.1218 4.30012 49.6793
1 24.9288 12.8419 9.2634
1 22.4606 12.5997 6.0064
1 18.9084 7.05385 43.9643
1 39.4259 9.39128 34.5402
1 52.5296 16.6904 21.7524
1 30.2231 27.7099 23.0063
1 35.6403 13.3925 3.35893
1 9.85083 51.8516 13.6085
1 42.7786 24.579 43.5412
1 39.04 13.0241 16.4278
1 36.6142 51.1358 35.9897
1 28.1443 10.8841 7.64106
1 3.186 1.1621 1.65943
1 46.2106 19.983 26.4385
1 34.4596 52.5966 5.23351
1 23.642 4.41529 38.1422
1 40.1268 3.73159 11.6355
1 47.4089 3.37154 0.578387
1 11.5566 0.266982 35.3415
1 32.2277 10.6093 32.7563
1 27.843 24.7586 28.8207
1 40.0733 10.1737 22.9486
1 30.3565 16.429 26.1935
1 31.0754 36.4638 20.8753
1 15.871 49.7116 25.2928
1 27.0019 13.2106 39.1881
1 5.5829 11.192 8.01085
1 13.852 38.5557 0.631311
1 48.0113 1.84366 50.8135
1 37.8822 19.42 52.1353
1 1.91317 1.46289 29.259
1 23.3922 20.1016 44.4819
1 10.1344 19.2118 10.691
1 40.0845 9.24355 25.3467
1 35.6787 31.3906 15.7575
1 21.1721 5.44531 44.3031
1 32.0913 51.2453 45.4182
1 31.3089 20.2639 28.0105
1 27.5545 41.7794 19.2609
1 1.75047 52.8999 5.89465
1 2.98054 16.1544 11.588
1 36.7647 25.2582 15.6181
1 29.1214 21.9433 26.3355
1 29.3434 12.4867 15.5963
1 35.6775 10.6214 15.6474
1 41.9026 38.3486 10.7758
1 33.9303 43.9006 10.6105
1 26.8515 42.4529 20.5275
1 11.1824 35.1973 53.9171
1 36.6126 14.4197 16.6518
1 37.6148 10.9886 7.20004
1 20.8392 26.1079 46.2069
1 51.3753 18.4765 12.5622
1 34.6126 5.98153 52.823
1 30.4497 5.49587 29.0991
1 1.54142 11.862 13.5825
1 29.5206 9.41498 43.4477
1 0.648005 29.0369 5.5587
1 14.4998 14.9233 41.4006
1 19.8416 18.1077 15.4928
1 37.7762 10.0529 8.40463
1 36.5504 2.56509 46.3254
1 36.9254 5.10182 2.24105
1 12.88 12.3401 3.54178
1 39.0097 15.0839 6.11761
1 46.8329 52.977 25.5741
1 29.7761 15.7356 29.8037
1 42.3432 41.5819 10.7326
1 44.6043 2.28155 50.7664
1 31.1012 25.2402 22.5242
1 38.0172 18.3415 1.46724
1 17.403 16.9011 35.4338
1 49.8934 16.1104 22.7395
1 42.1855 6.86213 11.9998
1 40.5701 38.7368 11.1532
1 6.13122 20.2801 19.3636
1 20.1793 5.08305 43.2264
1 35.5912 4.9226 52.8898
1 24.2772 32.0109 42.2467
1 18.0856 13.704 39.1253
1 36.299 7.72933 19.7529
1 27.935 1.12488 43.5185
1 30.134 42.0504 14.0003
1 50.5891 22.761 44.1138
1 47.2751 49.454 28.2656
1 27.3135 12.6995 40.4318
1 3.65551 2.83546 5.22964
1 20.1398 49.0484 15.6353
1 41.5486 18.294 25.2989
1 53.8846 8.20584 8.53301
1 36.9782 15.1932 4.41871
1 6.0934 22.0144 31.0233
1 44.0918 15.5622 7.06886
1 32.0546 10.5846 19.2158
1 34.0785 5.91681 36.9681
1 41.939 17.7762 4.76879
1 14.7694 10.8672 44.0149
1 10.9306 22.5547 4.05958
1 7.33481 19.6716 14.5523
1 43.2428 23.7981 31.6779
1 42.7798 24.1891 33.1064
1 40.4816 9.44094 35.4607
1 2.30308 4.92736 5.71169
1 42.3826 4.45486 6.01307
1 45.5259 1.87837 40.0264
1 29.2969 26.6045 23.9264
1 35.4262 17.5671 52.0728
1 42.521 1.86477 43.5076
1 28.9948 10.2491 25.1759
1 16.6215 17.5209 -0.0522229
1 40.4782 30.9022 12.2552
1 29.7315 16.4154 28.5125
1 14.8572 4.55168 47.8747
1 32.982 24.8212 21.0734
1 8.59298 0.908383 47.8079
1 20.3379 8.14921 39.512
1 25.3217 19.4748 38.1956
1 10.1818 50.4994 7.53298
1 6.26787 19.1396 12.5877
1 25.8209 32.4091 36.7844
1 1.08321 17.7385 52.1216
1 19.422 2.07944 39.4372
1 14.7188 19.7462 18.0019
1 37.3052 4.63261 9.23586
1 12.633 0.531649 40.1271
1 43.4493 17.6201 14.195
1 38.4453 24.5149 33.3032
1 34.2849 4.80583 6.17378
1 19.5161 9.77843 51.6799
1 25.1074 14.5919 14.6328
1 36.1607 11.3072 24.1921
1 33.3301 7.97079 53.8864
1 21.9583 17.01 15.9894
1 13.4123 52.4027 27.0429
1 36.327 52.3996 35.0359
1 49.5227 1.15945 49.0104
1 36.2842 8.48943 6.81204
1 32.6843 2.10492 3.1304
1 31.0849 14.1319 25.1941
1 29.7108 14.1636 32.2941
1 18.9842 17.0314 51.4811
1 19.3188 9.28204 39.5761
1 40.1011 45.1765 11.5146
1 21.6856 14.0507 7.79823
1 0.426721 50.8279 5.87417
1 1.76429 2.69174 6.83898
1 1.76616 50.1155 4.96971
1 9.41689 28.89 2.32289
1 21.4797 18.0692 48.0428
1 31.0094 15.6512 25.1122
1 16.5216 19.3239 23.7717
1 44.2281 12.0527 23.5148
1 2.78285 0.809823 50.662
1 14.1656 2.08643 43.1861
1 4.39405 -0.203528 49.0992
1 33.4397 23.3395 30.6976
1 19.6987 34.1484 47.9473
1 20.8457 18.2464 18.0184
1 35.3173 10.8673 3.89092
1 3.48082 4.38057 5.47945
1 24.6982 46.6963 19.9084
1 14.6774 18.9641 30.3392
1 23.0109 17.2011 18.4213
1 6.83796 2.31194 5.13508
1 34.1358 19.5423 25.3016
1 11.7602 50.4385 10.0151
1 42.6388 19.14 25.9598
1 46.2946 16.0056 6.64012
1 14.639 10.5841 46.5661
1 46.7584 4.57836 12.1617
1 34.7301 24.2072 41.9385
1 52.7208 8.4029 19.8339
1 33.6066 10.1907 16.9185
1 41.0802 2.38205 11.6818
1 23.2617 46.9487 9.82815
1 17.4372 19.0921 15.2967
1 52.6953 12.185 19.3903
1 49.9662 18.0709 23.9778
1 31.0403 11.0701 50.397
1 15.6117 15.7842 4.92919
1 28.2242 32.492 30.9849
1 32.4245 7.73575 50.041
1 23.194 29.0614 42.9195
1 19.7502 48.9033 18.1299
1 2.53247 0.0734513 47.1097
1 20.7181 16.6318 12.1768
1 48.4299 6.5115 17.6637
1 43.4365 23.8959 46.2753
1 35.1432 17.838 19.7649
1 34.6599 20.0683 20.6654
1 45.5422 13.5146 7.72013
1 53.2578 27.2217 7.24423
1 40.0229 6.06979 11.5374
1 44.4451 52.8141 26.2679
1 39.6244 12.7271 23.6822
1 50.0244 9.21935 22.56
1 7.42348 -0.0811914 41.6938
1 28.8489 26.0681 38.5215
1 43.0964 4.62128 11.9559
1 29.3259 52.1135 40.3377
1 0.963882 11.2278 14.7834
1 43.1057 52.6802 12.5139
1 39.9336 3.24916 37.5346
1 13.9881 2.24346 44.6393
1 34.7625 24.5035 19.3235
1 35.6464 43.4774 10.7309
1 49.7943 2.64017 1.26403
1 5.17273 22.7896 31.8978
1 0.444375 12.2441 16.0429
1 29.4235 6.95538 30.904
1 44.7937 0.803627 22.8943
1 25.691 21.0728 35.6006
1 42.4498 46.2302 12.0245
1 25.7924 0.793139 39.6672
1 29.6077 12.4006 18.8308
1 19.2169 15.3363 35.6423
1 35.6351 23.5594 18.6736
1 6.66589 53.7034 39.0943
1 46.0411 16.5012 14.5019
1 14.6577 49.5126 23.1491
1 18.9797 11.0475 53.5505
1 44.0195 13.5897 15.252
1 17.3765 16.9303 9.79261
1 19.7173 16.1138 32.6388
1 39.8215 53.5428 27.8492
1 32.119 15.9931 22.5137
1 51.8639 8.97075 20.6727
1 8.77171 20.1124 15.4091
1 9.10015 1.61393 1.08645
1 46.5572 4.76588 28.6591
1 47.769 49.2172 12.7642
1 14.7761 18.7388 2.25538
1 45.5307 47.7519 31.0032
1 49.3569 2.34695 31.1856
1 40.3579 23.783 32.0655
1 16.338 16.7191 1.06558
1 34.2474 25.642 18.6142
1 25.2424 19.6651 40.541
1 4.79295 53.8892 42.1845
1 7.27832 53.7344 36.543
1 13.6593 1.10214 41.0406
1 45.9029 4.3459 7.49765
1 53.74 39.6345 3.50956
1 38.9072 18.022 16.2619
1 49.3103 3.9679 7.59763
1 49.1476 3.45246 4.0078
1 14.4896 -0.0254147 34.6206
1 51.0748 53.0938 22.6813
1 51.8144 29.3875 7.42603
1 19.1709 17.2884 30.6458
1 41.9724 17.384 24.1911
1 3.07272 7.72154 11.7194
1 28.0333 42.0939 52.1717
1 27.1785 30.7674 32.9878
1 45.8552 2.30732 21.1589
1 45.9864 17.8296 13.8899
1 50.8303 3.6493 25.7301
1 16.6669 47.9369 9.47623
1 23.7917 47.5442 20.6171
1 47.6368 3.30326 11.7209
1 51.8868 12.9875 20.3984
1 36.2998 9.51487 17.6168
1 28.2465 23.2299 41.99
1 33.3916 7.78219 33.9994
1 31.7084 43.7583 11.1244
1 8.91477 53.4857 25.8657
1 50.6592 14.9678 22.2193
1 42.8772 34.7735 10.069
1 51.5146 22.8969 28.384
1 34.5983 29.7942 17.4637
1 39.5869 14.1857 23.8751
1 53.1341 2.19566 30.0714
1 -0.114082 16.1869 19.9721
1 4.87762 1.43359 32.349
1 53.7527 8.68173 18.8167
1 17.7092 26.7438 50.4521
1 39.9164 18.4087 15.5323
1 46.3465 6.8812 18.6828
1 31.7218 13.9608 26.5236
1 51.8478 24.9408 32.684
1 46.1739 13.6348 14.7003
1 36.588 6.64055 20.5526
1 6.83837 1.89715 7.74952
1 0.112126 11.9454 17.3149
1 27.4961 36.6895 31.5493
1 4.97107 23.1572 34.3532
1 12.5475 50.8175 16.2584
1 49.0184 3.3337 5.33439
1 37.0186 39.9813 12.3604
1 44.411 2.9162 21.0933
1 33.764 44.9629 9.68192
1 32.9336 8.65548 20.1967
1 46.0177 17.7735 25.1273
1 50.7464 5.13134 23.6091
1 30.9482 22.9345 23.087
1 15.8691 48.9786 23.8929
1 10.8193 52.5162 25.2021
1 26.5012 46.3822 26.6604
1 31.2853 14.7627 27.772
1 36.031 5.48807 54.3111
1 24.4274 47.9075 17.503
1 39.1519 1.22046 10.4825
1 15.5262 49.5539 17.8261
1 52.6435 26.3225 8.22315
1 51.1297 7.04874 22.1712
1 42.8527 11.7254 24.0348
1 19.567 18.1751 29.4513
1 45.5828 1.78869 12.2333
1 37.2861 21.1994 17.4544
1 3.66968 23.7366 34.1226
1 42.2809 22.4117 13.4975
1 53.5427 20.1188 10.3094
1 1.58476 9.96079 15.0206
1 47.255 0.806255 48.4847
1 40.6845 8.30044 10.3852
1 36.6333 12.2437 5.60833
1 2.58198 8.82306 12.5782
1 6.3755 11.0582 53.4215
1 21.3762 21.1896 45.5925
1 40.3589 24.2079 14.623
1 40.1327 16.2226 5.98207
1 48.1698 18.9217 25.2316
1 39.7321 11.8573 8.45121
1 35.1428 6.16466 34.2981
1 32.3281 6.14858 41.4202
1 40.7257 10.003 17.31
1 19.8473 8.18586 50.0425
1 17.1214 18.853 29.0103
1 36.8695 22.3789 16.7546
1 33.4383 6.58764 22.3804
1 51.4196 4.40096 18.312
1 49.9926 25.7252 38.2312
1 10.354 18.4686 9.45812
1 8.81535 54.1709 30.8421
1 40.3593 6.06201 20.3224
1 44.9089 3.50614 0.170512
1 37.7354 24.4817 44.131
1 6.5784 4.89599 1.53304
1 40.5356 4.57674 20.8803
1 26.9874 4.06042 36.4323
1 37.9217 18.7777 17.0477
1 43.4159 21.5722 13.0613
1 38.4903 16.4655 24.7286
1 39.2542 24.8976 36.9022
1 36.5336 10.2327 24.9586
1 0.369531 0.73372 50.0991
1 36.6271 16.6768 2.69646
1 28.4182 16.1929 33.4709
1 6.10891 0.343357 12.8538
1 22.9164 50.1245 29.1084
1 45.9391 51.2861 27.3367
1 46.4507 32.3009 9.45389
1 18.5744 19.1205 17.4598
1 26.9361 10.7666 28.8498
1 47.1734 2.04922 12.1183
1 8.43105 51.5116 6.09251
1 24.3323 49.7966 31.3922
1 32.0505 12.6171 28.8804
1 39.2129 25.2887 39.319
1 41.7878 12.1339 16.5378
1 22.776 12.308 33.6815
1 53.9454 43.883 3.40736
1 2.87399 0.773458 5.67331
1 31.5079 11.1138 18.0281
1 24.2981 21.6474 42.9216
1 44.3879 4.02945 20.1526
1 33.8467 24.6091 35.2307
1 32.2118 11.8094 30.0863
1 1.62721 48.8645 4.34429
1 29.8927 18.538 24.8058
1 9.73424 9.48407 4.85483
1 1.99476 16.8858 12.4988
1 40.2505 1.09127 11.4882
1 2.4219 6.30313 5.93996
1 31.7324 6.67849 24.9457
1 5.95073 0.837059 28.2501
1 21.5468 18.3381 23.0638
1 36.3148 17.2734 19.0819
1 50.1704 4.68273 24.8334
1 25.9172 13.8803 26.9481
1 37.4918 1.15117 28.1095
1 29.1105 15.6418 32.2848
1 43.5369 2.27299 49.6317
1 15.9551 12.2624 42.1579
1 53.0414 -0.0506723 45.433
1 30.713 9.70722 36.0594
1 34.5269 22.5186 29.3793
1 31.4247 6.45923 45.0777
1 42.5352 51.2001 12.3108
1 46.4902 21.6404 28.2346
1 33.9277 11.5289 25.5193
1 24.0605 15.7882 26.7872
1 10.2079 51.7321 19.6605
1 54.1221 23.977 38.6282
1 37.4768 14.813 5.69193
1 21.4258 16.4363 30.9064
1 18.0518 10.8969 41.3209
1 27.6669 26.0727 28.6255
1 33.1552 17.3144 44.2797
1 47.1612 24.675 34.9828
1 45.1619 0.147889 24.2417
1 32.0104 22.9508 22.1429
1 33.9209 50.1318 6.00221
1 28.5807 3.87231 34.178
1 19.7445 53.2727 33.3575
1 47.3951 24.8655 40.9224
1 39.9397 22.4467 29.9019
1 29.3496 0.908094 36.6724
1 0.460474 10.6365 17.6212
1 5.52486 22.0916 27.3613
1 36.413 7.09178 30.4141
1 50.3244 51.958 24.8708
1 26.9625 48.1449 32.9483
1 27.2256 8.90901 30.9937
1 42.1637 53.7869 12.341
1 38.7667 24.5269 41.836
1 45.4221 11.604 24.1138
1 20.7729 48.9481 25.9431
1 34.0106 7.82781 20.3186
1 43.9442 12.2152 15.6494
1 44.7382 15.5469 14.4596
1 48.5804 6.67598 25.2252
1 32.8696 23.5494 43.1884
1 43.2747 45.1663 11.6962
1 50.8469 6.32167 16.9239
1 43.7242 6.56038 27.5957
1 25.0083 49.7984 32.8892
1 33.8151 10.5138 53.8929
1 32.3491 7.56751 22.4443
1 5.54337 4.51013 2.4983
1 26.783 38.6142 32.7644
1 1.39036 16.3213 17.8302
1 15.9607 21.7355 0.0744241
1 25.2506 9.97668 32.1924
1 49.3178 25.3719 35.705
1 12.8294 19.4927 25.6783
1 37.4522 51.5335 9.2214
1 44.5055 17.9779 25.0191
1 53.7591 23.1966 41.1084
1 9.19845 53.3103 28.6118
1 45.2235 8.04204 25.9991
1 32.8414 26.1403 20.6129
1 37.6968 28.5042 13.2568
1 28.2175 17.4111 33.5146
1 46.719 13.714 23.3938
1 49.4488 0.927045 11.8971
1 23.2858 48.489 26.4377
1 26.2367 39.3756 33.9902
1 44.1678 13.5851 23.6123
1 38.6407 7.21358 9.78652
1 38.8678 6.5241 20.0741
1 33.1868 4.77183 41.4731
1 51.1534 21.3019 26.2616
1 49.5326 17.0544 13.1468
1 38.4507 22.5041 30.346
1 35.8139 5.11676 35.2846
1 16.009 48.9735 10.1477
1 31.8534 50.0076 44.6296
1 36.0878 8.11984 27.9954
1 24.2473 29.06 41.8048
1 26.8244 34.0919 34.8717
1 39.2201 3.08643 40.4971
1 38.4002 3.16552 39.2362
1 28.3933 49.6752 36.1256
1 29.7564 20.0131 45.1071
1 26.5174 13.7785 25.6835
1 13.0574 23.4362 2.88298
1 37.4968 24.3738 42.7266
1 22.6687 13.5074 32.9442
1 48.8384 23.8544 31.2309
1 47.5322 24.0197 42.1945
1 47.2917 22.3971 29.0387
1 34.5099 20.9673 28.5554
1 49.8101 1.54199 38.7021
1 52.181 20.1607 49.1829
1 29.5543 50.3516 38.8094
1 24.7914 1.75005 39.2821
1 26.3498 49.6088 32.9954
1 25.4203 16.2579 45.9012
1 21.0098 6.04125 40.3086
1 3.39396 30.5399 2.50871
1 43.7548 24.5571 34.0334
1 30.1 10.2086 37.2628
1 49.3209 21.6966 27.7756
1 26.6253 36.9213 35.0002
1 43.7856 1.47259 43.1015
1 11.5263 5.11985 53.5837
1 26.3291 40.8265 34.1337
1 38.3401 24.5542 40.3083
1 41.1361 16.1975 15.5857
1 39.8879 24.6516 42.6974
1 38.3658 4.6953 10.1529
1 29.1431 9.23466 45.975
1 11.4872 37.094 24.9178
1 48.8495 22.4193 28.9672
1 28.7184 30.8787 27.0998
1 30.0654 9.22869 24.9931
1 30.188 15.8208 27.4629
1 46.2953 1.03925 42.2749
1 34.555 32.1795 17.9299
1 44.9647 25.3313 41.7276
1 27.6921 44.3147 16.5289
1 45.7346 7.76794 17.5209
1 3.88379 4.17888 14.8702
1 34.3831 19.8084 26.5626
1 22.252 8.86282 36.2393
1 38.5599 48.8029 10.5149
1 17.0521 16.9268 53.0249
1 51.3921 20.3203 47.7346
1 46.9378 2.86766 20.3065
1 37.7407 7.51466 8.45525
1 40.949 23.7525 46.8465
1 46.9124 8.37498 16.8446
1 41.1452 1.46539 47.7474
1 36.566 9.01276 27.0865
1 39.4242 23.9844 44.8032
1 16.9839 19.8707 53.1249
1 38.7983 20.3113 52.2161
1 31.1811 24.7566 39.9129
1 15.1356 50.0264 20.2907
1 2.33938 27.5806 5.45749
1 35.8745 20.7634 49.406
1 20.9874 6.08752 46.7426
1 46.635 19.8229 52.5832
1 40.8786 25.3532 36.6008
1 45.3115 10.158 24.3614
1 6.73871 52.6055 4.72404
1 48.4979 25.0866 39.9101
1 28.9889 7.50999 29.6501
1 27.3354 5.66877 34.033
1 46.5071 24.2153 43.2261
1 44.507 5.42134 12.0141
1 48.176 3.36416 8.257
1 46.303 2.34888 37.015
1 44.6307 23.987 45.2044
1 10.3155 0.245007 39.4367
1 4.1132 2.34507 3.62226
1 50.0504 2.44104 53.9934
1 42.3409 18.3371 14.3955
1 27.1385 28.5207 33.9707
1 49.6317 24.3164 32.2594
1 42.9139 14.6801 7.72635
1 50.2611 6.36601 23.02
1 26.0203 2.51692 44.5697
1 38.7631 7.45021 19.2359
1 38.3799 23.0964 46.8393
1 37.8576 2.12835 45.9537
1 11.0198 21.1153 19.5741
1 42.87 5.33811 29.7257
1 18.6173 0.925726 37.3787
1 45.8487 25.1815 40.5196
1 32.7544 10.2468 12.2415
1 0.72542 32.2323 4.65831
1 28.2781 41.351 42.2117
1 40.5627 19.5432 27.4866
1 30.9051 20.9288 45.199
1 43.7147 25.6435 12.6021
1 45.913 3.27818 1.12211
1 36.2112 24.4507 36.4595
1 29.4177 34.1273 25.2195
1 50.0855 11.8563 15.4156
1 18.7334 14.6002 36.7356
1 47.0679 20.7346 27.1932
1 52.2104 1.38568 34.0704
1 36.1608 24.5483 41.7457
1 51.904 15.2215 21.6034
1 51.9577 24.3444 39.5311
1 43.6178 8.04555 18.5821
1 13.5812 18.4353 4.281
1 27.9291 22.0035 42.7087
1 37.8317 23.6247 31.013
1 17.7895 49.6317 16.6924
1 46.2789 7.95403 25.145
1 23.8381 17.3604 44.8303
1 37.1897 5.95044 8.63186
1 32.5494 51.9039 47.8099
1 42.8729 5.69931 19.7171
1 7.7113 15.8259 8.38758
1 47.3735 0.357889 22.2022
1 35.0631 8.38403 19.6341
1 48.8807 13.85 14.5471
1 45.2341 25.1634 36.6157
1 32.2308 14.7309 51.2647
1 27.836 43.0746 36.8141
1 52.8116 22.2933 43.2451
1 27.7945 37.598 30.3997
1 34.7008 46.9365 8.45329
1 30.5308 45.2179 45.8033
1 30.6505 29.9193 22.1254
1 42.9382 11.3882 16.1667
1 52.1434 24.9044 35.3666
1 47.6389 1.10857 41.8387
1 47.3056 5.38028 27.5626
1 23.8182 5.70069 37.3111
1 18.7017 6.52932 47.752
1 49.2095 3.88249 27.8619
1 48.5234 47.1782 11.3036
1 37.2456 6.36665 31.4606
1 18.8816 6.02219 45.3082
1 43.7757 1.95404 48.1659
1 18.0311 6.62383 49.2603
1 46.7567 12.0738 23.6748
1 39.6564 23.1317 45.8953
1 53.1805 20.1979 25.2841
1 43.7405 24.318 12.9537
1 33.7108 6.58311 34.4279
1 5.17841 0.00230784 51.4661
1 39.6987 16.9035 24.9395
1 32.5646 2.75829 31.0964
1 31.1579 0.803137 51.7261
1 45.1713 24.4391 42.9272
1 47.4682 23.4515 31.4433
1 41.3293 24.3433 32.8727
1 46.6392 16.7145 24.6239
1 27.269 40.8206 37.8059
1 32.1654 20.1383 27.0521
1 45.4406 20.9511 12.8321
1 43.7667 29.5936 10.7983
1 52.8135 36.5327 5.2322
1 14.8554 52.967 32.2629
1 29.3773 47.8175 39.3391
1 36.8039 17.5045 1.63811
1 43.5195 25.1377 41.4204
1 40.7705 21.1528 29.3018
1 26.6824 26.6057 32.211
1 43.9591 6.54078 19.258
1 42.7202 30.6302 11.1499
1 32.1225 53.1639 35.9365
1 35.8662 28.8037 15.1741
1 46.7593 21.3612 49.3319
1 48.3011 4.96755 19.8371
1 33.53 21.7518 30.4313
1 30.4001 8.14218 41.1563
1 31.0511 8.32643 38.5725
1 41.3489 25.5925 37.9456
1 19.2385 11.7774 0.572836
1 1.73011 24.6541 34.9132
1 18.0767 47.6699 9.7879
1 20.9798 1.54481 37.7652
1 40.5569 25.2029 39.2561
1 31.4937 47.3683 44.6116
1 34.4421 13.0097 23.3821
1 41.4645 25.2378 40.3849
1 41.543 33.9358 10.4417
1 50.5432 7.73077 16.3958
1 39.8308 3.91001 33.863
1 32.6196 6.70981 38.7944
1 21.4329 9.02966 37.4818
1 46.8839 23.5549 44.5635
1 50.12 50.7409 11.8032
1 45.6396 3.92644 2.35153
1 26.6182 38.127 37.5659
1 4.44962 20.9171 21.4467
1 41.2442 20.6268 52.9475
1 49.6458 20.2183 49.5367
1 13.7773 50.3397 16.2539
1 31.3747 54.1077 54.0412
1 0.741938 19.8848 23.4764
1 51.3626 24.2498 9.9642
1 36.6584 18.475 18.1426
1 33.1523 21.246 46.2564
1 22.4022 5.91459 47.2471
1 8.57701 1.88252 2.42334
1 6.97673 8.57377 53.7788
1 12.5073 11.6222 47.647
1 39.486 1.71596 44.0081
1 44.6804 23.6348 31.5335
1 28.536 9.49233 27.5932
1 5.85659 33.2796 0.623186
1 33.8329 8.67848 32.8814
1 38.8516 1.99377 47.0461
1 28.2211 1.90473 45.9175
1 2.7298 21.3984 25.0129
1 39.6709 19.7032 0.258107
1 18.6685 9.57064 40.7936
1 48.7927 15.8385 23.5776
1 45.108 24.6508 34.1082
1 30.2569 44.5082 43.2188
1 46.7859 9.69561 16.3159
1 46.7384 1.83 51.2715
1 10.7889 47.3667 4.67056
1 44.4721 47.5407 13.3998
1 17.0182 49.7174 27.2481
1 39.3991 3.83091 35.3076
1 51.9667 51.1208 10.1045
1 13.825 9.80858 48.9887
1 17.5369 49.2502 19.1731
1 1.25617 1.39998 52.4863
1 52.6137 2.57223 0.249681
1 29.6152 45.3243 40.3143
1 38.4987 15.1823 23.8549
1 25.8934 11.4249 7.44558
1 30.1616 11.2816 49.4225
1 41.1229 1.90448 49.1809
1 25.2859 8.77547 33.1303
1 5.9254 5.98255 8.32437
1 27.9084 42.1792 38.0701
1 29.2728 18.5574 27.2315
1 32.3208 8.73136 34.5499
1 26.4754 36.0376 36.1272
1 1.67774 0.17571 44.8872
1 23.4915 4.98599 45.2092
1 45.2983 0.836051 46.4577
1 31.8301 7.3861 37.7428
1 32.5452 6.87903 48.8488
1 6.70377 13.7168 8.27046
1 17.9232 8.0441 44.0483
1 45.0787 1.36263 48.0063
1 15.5064 14.2487 40.5163
1 39.45 24.964 34.3769
1 49.9962 25.0793 34.3436
1 14.0068 0.301774 36.0138
1 22.1009 27.6837 44.413
1 35.1265 7.98905 32.2013
1 36.0172 14.6483 3.55239
1 36.7934 19.4625 51.1657
1 28.2879 10.9116 42.1224
1 52.1456 1.18221 49.6996
1 7.68713 0.835373 3.07341
1 35.2741 7.92712 30.8021
1 37.4321 2.63433 48.9043
1 13.1584 50.006 18.8802
1 40.6306 6.61188 29.1477
1 27.7928 12.8496 38.1027
1 32.387 53.3575 47.2962
1 41.0277 25.0751 41.9093
1 51.6051 1.45541 37.0087
1 42.5257 50.8261 28.7507
1 47.9621 25.2843 36.0252
1 17.8183 8.77311 42.896
1 21.8415 8.78311 51.3069
1 6.50543 0.225778 25.2903
1 39.5407 5.16524 31.4735
1 22.4338 11.7543 4.5627
1 11.2894 2.86049 49.2654
1 14.9082 8.05796 4.02389
1 40.2518 24.4311 43.9282
1 41.1678 3.92969 33.6072
1 41.9281 20.3228 26.7698
1 51.6587 25.2543 36.712
1 50.8255 24.6938 31.5756
1 44.3334 22.5192 29.3618
1 38.0226 2.06959 44.3834
1 14.9915 47.0188 7.77578
1 2.36789 9.25791 4.20006
1 39.9262 7.95599 18.5883
1 41.345 2.32325 42.3881
1 45.8152 23.5782 45.749
1 43.7442 21.1278 52.299
1 38.3579 11.6741 23.7339
1 33.9403 9.3259 0.387419
1 45.2141 8.93807 10.1689
1 34.4073 4.44088 40.7805
1 33.7794 9.26536 10.42
1 27.4163 12.9281 22.7398
1 40.1983 14.008 16.3685
1 39.8643 2.36059 49.375
1 52.77 53.3478 9.61451
1 37.1639 14.456 23.5782
1 26.0162 12.0112 8.6642
1 31.8174 47.2947 47.1422
1 31.0023 1.00832 53.197
1 5.10396 19.135 17.4857
1 32.0394 28.4995 20.8104
1 52.3533 11.9331 7.57244
1 36.073 4.4173 37.4625
1 27.8955 1.77227 39.204
1 47.4625 25.4661 37.4577
1 40.8165 16.4369 24.1053
1 31.706 8.64778 35.7373
1 15.3117 8.75199 51.6318
1 7.32973 9.95013 53.5641
1 20.6293 11.4479 0.921741
1 40.5833 1.67958 45.1825
1 33.8372 5.92732 51.4108
1 53.7566 4.17913 21.1285
1 30.3358 7.45553 42.3801
1 42.9644 25.6191 40.1404
1 43.3857 3.38423 0.473847
1 40.5839 11.2528 16.6267
1 43.768 49.2431 49.1956
1 22.1909 7.4536 49.0988
1 28.1218 11.4452 40.6619
1 16.5952 3.11952 43.5993
1 10.6646 52.1711 26.668
1 17.9187 1.75403 39.861
1 10.5278 9.43954 51.6988
1 42.3629 48.731 12.6247
1 26.2308 7.6409 32.8824
1 54.1192 0.229238 41.4184
1 42.8199 1.32918 45.989
1 24.014 10.6087 3.0575
1 40.3153 3.57078 36.3024
1 46.0475 25.4051 37.8243
1 40.7812 51.1058 31.1426
1 30.0787 9.15877 8.26369
1 18.2794 15.717 7.69753
1 45.4047 46.5304 32.8827
1 38.6421 24.8271 35.5833
1 26.51 37.7899 39.8684
1 39.0539 4.92922 33.0367
1 40.1808 1.72843 46.6153
1 15.2666 15.3566 3.49117
1 30.2297 1.66272 47.1932
1 22.4886 9.95916 35.4695
1 37.8593 3.78093 35.7034
1 37.1425 23.26 46.2787
1 13.0098 27.8223 0.47594
1 32.1858 6.7344 40.0867
1 16.7334 9.80241 43.1062
1 52.2722 23.8047 40.9186
1 18.7797 48.8332 13.2718
1 25.2387 18.7997 41.7128
1 19.498 27.0412 47.9216
1 46.7535 18.975 25.7433
1 53.7098 20.5509 47.1877
1 29.4481 9.12763 40.908
1 42.5116 24.6874 42.2508
1 47.8892 9.70758 23.8004
1 42.4976 3.50058 53.6422
1 8.10927 52.8384 12.0342
1 12.3687 16.522 6.036
1 23.4961 12.2056 7.14409
1 43.6752 22.9953 47.4972
1 47.5053 22.4456 47.2835
1 46.5946 9.23822 24.543
1 52.1006 6.68858 10.2647
1 54.0293 19.0148 22.7087
1 23.2016 50.5414 31.5427
1 30.241 12.3149 33.6625
1 38.6939 45.3135 11.3235
1 30.8764 7.47181 39.7663
1 17.3534 13.0503 40.1882
1 53.8408 10.1105 18.8454
1 8.38528 21.5476 6.62862
1 35.2926 21.6702 47.4675
1 39.8347 20.1925 53.1436
1 40.0684 52.5674 11.6085
1 35.8088 6.75305 33.1498
1 38.0945 9.10762 26.7715
1 37.8882 22.0474 48.9083
1 29.1356 11.1749 37.1619
1 41.8631 21.9905 50.5316
1 14.0818 49.7121 17.7058
1 32.0478 7.22226 36.3063
1 23.1883 4.7394 39.6973
1 28.3019 33.8373 27.3401
1 20.0741 18.9083 50.548
1 25.0644 13.9814 13.2373
1 21.1038 13.3342 35.3931
1 36.4008 21.682 48.4109
1 32.8485 8.20594 52.4437
1 18.3708 3.22908 41.604
1 32.4433 20.4414 21.7949
1 12.3713 26.9392 1.38843
1 20.5889 50.0862 28.4312
1 13.9689 9.3229 54.0261
1 3.99075 5.59774 4.37945
1 26.4996 16.729 38.0277
1 29.3508 33.2834 26.4381
1 44.7546 50.7744 28.064
1 23.4027 1.23634 38.6949
1 29.4616 9.67982 39.4784
1 17.6672 15.0475 37.2922
1 26.2877 14.5783 38.9518
1 43.1419 10.207 16.8605
1 28.258 11.3667 9.2227
1 29.5519 12.5199 49.1958
1 36.6513 18.5142 25.0652
1 43.7622 25.556 39.0362
1 14.5255 49.9625 12.6119
1 7.25122 20.7122 18.9327
1 39.5528 17.1277 4.88127
1 25.2488 6.58802 35.1845
1 47.6666 15.9279 14.4276
1 29.9466 7.9744 43.6581
1 31.8155 13.6065 24.1737
1 28.404 40.9173 45.5315
1 32.9342 50.3012 52.7093
1 5.29612 39.9168 1.20541
1 6.4783 4.14943 6.72159
1 2.80255 40.1421 1.48703
1 15.497 11.1426 0.197596
1 37.6735 13.3372 16.2028
1 25.9859 1.84614 41.9913
1 7.6113 36.8646 0.629502
1 31.5011 17.222 48.8834
1 4.31502 42.0494 1.39806
1 30.2311 4.07157 32.5818
1 40.841 48.7701 12.2537
1 18.6445 46.887 8.70471
1 36.1243 3.9009 50.4973
1 2.33871 46.6231 3.15196
1 26.906 34.868 33.7075
1 6.48025 2.44704 9.08243
1 30.2361 36.7785 22.2557
1 10.6434 48.4896 5.6739
1 4.94085 32.8826 1.48336
1 22.8319 53.0779 35.5112
1 36.3896 0.884938 6.94957
1 30.7015 7.88824 47.5944
1 34.3972 10.8234 15.5873
1 38.2368 13.3293 7.24052
1 30.078 5.03259 3.50957
1 9.50075 1.32205 48.9909
1 36.0583 53.7624 6.65985
1 27.597 29.0212 29.1831
1 31.5519 46.0404 0.384102
1 53.6583 24.5763 31.2787
1 31.5152 7.54056 6.51378
1 46.534 51.4363 13.1464
1 34.7809 17.3994 24.1573
1 23.9029 47.4835 15.9954
1 11.1436 18.7925 7.16388
1 9.11126 20.4347 7.18226
1 11.7509 12.4555 4.52549
1 31.2759 12.3029 31.0983
1 10.5566 40.9372 1.12514
1 33.8782 7.51576 7.62862
1 10.8084 5.20498 0.657553
1 47.9883 3.46004 2.90734
1 32.4206 52.0369 0.409476
1 7.19367 27.6523 2.95004
1 40.2967 50.1331 11.8669
1 41.6372 4.1863 32.198
1 33.7939 23.8947 20.4332
1 32.0632 37.6622 14.5326
1 33.554 0.887457 3.71016
1 51.8824 48.2104 7.36322
1 39.3876 4.44383 2.91548
1 10.4748 32.8421 53.5958
1 32.6221 53.5329 1.99318
1 44.5709 0.9068 44.2304
1 48.1959 17.3451 13.7817
1 51.6336 1.3819 10.616
1 29.5692 4.36474 53.3985
1 20.5739 8.99833 50.8867
1 39.093 47.6689 11.024
1 6.39557 49.9864 3.50569
1 26.8783 10.468 7.17604
1 42.213 2.19667 50.0346
1 36.7399 44.2892 10.6198
1 16.6126 42.194 2.99118
1 5.06219 37.0893 0.996439
1 30.4308 2.10739 34.0579
1 32.5215 50.5907 -0.114144
1 24.7789 29.4815 39.1208
1 45.3318 15.0526 7.13458
1 12.8639 46.5919 5.79392
1 39.1105 52.4612 29.983
1 36.6039 20.9142 18.6712
1 13.9501 45.8499 5.57139
1 30.6226 17.5644 47.8515
1 15.9468 19.8221 20.0932
1 10.4303 13.4225 47.7577
1 29.0217 26.2677 26.5715
1 4.03872 18.3938 15.5278
1 44.3501 21.9214 50.0902
1 4.11313 53.0393 4.61849
1 20.1781 23.5467 48.7838
1 52.1048 0.27007 20.9387
1 29.3379 22.6539 25.1838
1 29.3732 15.2356 48.1234
1 47.319 5.61985 11.2056
1 47.099 50.4801 27.2915
1 16.611 48.9886 11.613
1 11.533 51.3666 17.3597
1 7.08441 19.139 7.90409
1 4.61726 54.2802 -0.146164
1 33.4575 50.015 4.71259
1 45.552 22.3582 49.1746
1 19.2902 7.39679 41.5618
1 37.0452 1.08267 8.19914
1 27.5041 14.9785 36.8274
1 28.1138 5.64415 32.7736
1 0.781938 36.3722 3.93682
1 52.9769 19.1914 11.2783
1 24.7881 46.7692 7.70283
1 19.3411 14.8642 7.23405
1 9.59371 54.2913 36.8214
1 30.4472 20.4846 23.6925
1 10.7523 14.1749 45.3305
1 45.5688 15.7898 23.9827
1 4.10003 39.3441 1.48045
1 40.0042 19.653 15.2152
1 48.8711 32.2184 9.02382
1 10.4352 1.32773 44.5093
1 28.0168 47.4521 10.9423
1 23.7955 10.9908 4.44923
1 32.3537 24.3103 40.8335
1 34.5757 24.7604 39.2563
1 51.8209 2.03438 19.3953
1 42.6517 27.6832 11.6785
1 7.18021 47.6196 3.38663
1 0.16306 46.8164 4.3041
1 7.09786 46.3651 2.69299
1 30.6268 23.4926 42.5305
1 11.4055 48.393 6.80507
1 9.90232 36.9577 0.130265
1 52.529 41.7752 3.17527
1 3.61861 3.4121 18.5591
1 38.5806 32.7165 12.9559
1 34.6803 24.5561 36.4449
1 45.1522 31.7804 9.79518
1 40.5518 3.01501 51.6735
1 5.11976 15.1708 9.24396
1 9.55426 47.192 4.00826
1 27.5779 23.7365 29.7585
1 9.72733 52.4842 18.3875
1 34.5027 2.14364 5.92538
1 11.4013 19.3645 11.6307
1 30.1787 31.4851 22.4466
1 26.0685 29.5551 36.8556
1 12.6541 7.31724 53.5487
1 53.6184 24.6155 35.1195
1 9.32337 41.5479 1.87741
1 39.1657 50.1344 10.9642
1 22.5529 48.2123 22.4925
1 54.012 24.6697 33.8311
1 16.5264 32.6027 49.3132
1 13.8154 48.2403 7.72637
1 15.0221 18.8019 10.9166
1 37.0841 52.8018 8.53281
1 17.2114 19.9636 19.4949
1 0.978846 8.32346 6.49157
1 29.3865 8.25848 27.2256
1 35.2627 3.44072 48.4868
1 34.7454 10.4995 2.6893
1 1.49717 39.3351 1.83243
1 1.57795 37.9809 2.14394
1 46.3315 48.0146 29.8873
1 8.42163 0.951086 52.8966
1 50.2277 3.45152 27.1235
1 32.0826 4.95236 5.17028
1 27.1442 28.2006 30.2537
1 46.105 22.808 46.9602
1 53.6367 12.8674 18.2438
1 0.53316 47.9997 4.96539
1 0.392002 14.6953 1.7632
1 30.1121 33.3177 24.1415
1 32.0777 48.603 45.2158
1 31.5248 9.60881 50.8241
1 50.3531 10.5647 15.6702
1 11.081 13.3897 46.5324
1 17.3989 8.33093 45.2867
1 25.9481 13.1656 12.7791
1 38.0412 51.6479 33.5515
1 53.1925 22.4557 9.52757
1 51.9161 45.4018 6.81275
1 28.0994 30.48 29.3477
1 23.0147 30.5079 43.7632
1 34.3729 51.7783 36.0512
1 41.9663 1.5985 44.7969
1 51.4365 33.595 7.60368
1 13.8549 49.9522 11.1177
1 16.1483 25.8547 53.8163
1 12.8777 47.7965 6.76451
1 1.22977 29.8972 4.45637
1 40.2644 5.03951 5.17824
1 9.18294 43.071 2.17859
1 3.04467 41.4944 1.52472
1 12.0251 13.6528 5.29191
1 28.9282 46.5177 4.67724
1 35.1713 6.86332 0.715579
1 39.9815 15.4591 16.1571
1 4.25863 28.7399 12.8513
1 3.92533 37.9289 1.48815
1 44.327 2.67715 52.0195
1 0.710695 52.0357 6.63712
1 49.3835 19.779 13.1311
1 14.3096 41.1246 2.22768
1 42.5874 1.3998 47.4148
1 2.0409 43.6275 2.30069
1 30.8388 53.3799 36.663
1 35.5349 4.03976 41.5341
1 2.05443 42.2303 2.08961
1 21.2818 19.7977 46.6358
1 9.62972 51.2331 8.72669
1 51.5793 14.0132 6.11015
1 32.709 51.119 2.81426
1 49.3663 8.54802 16.4558
1 33.8604 22.5681 20.9232
1 25.7174 10.1127 5.13065
1 26.8965 41.2127 51.4956
1 26.5923 25.7087 33.4694
1 51.4056 3.06729 28.0647
1 6.11316 27.599 15.2974
1 38.7985 18.6513 0.303783
1 36.1149 6.06776 4.5801
1 1.93605 19.0324 49.9464
1 33.0766 53.7405 3.37974
1 28.1884 6.56364 31.7497
1 0.99796 18.7729 51.0668
1 32.4339 53.0094 53.3863
1 45.2257 48.843 13.6643
1 32.738 51.1912 4.23588
1 20.1027 21.2312 49.2456
1 38.9698 26.175 13.6877
1 13.9956 6.76584 51.2796
1 47.7554 53.4092 12.5604
1 37.1377 46.8254 10.09
1 11.1929 49.5605 7.72539
1 34.8048 45.8945 9.46721
1 8.60709 10.1914 52.8008
1 28.684 5.80423 1.51798
1 15.8259 49.7168 15.1039
1 5.2406 50.9069 3.90708
1 32.7443 49.5195 0.915623
1 30.0479 3.07976 53.0897
1 29.5698 18.7534 45.5987
1 23.1192 11.465 2.09093
1 13.452 49.2536 8.82229
1 40.9226 4.66777 6.31738
1 36.0943 5.93995 7.56621
1 33.3165 13.2747 52.8374
1 1.26088 45.894 3.48204
1 5.57031 28.8347 12.4383
1 24.6938 41.8158 0.240121
1 0.659358 41.4924 2.52635
1 11.9817 49.5008 8.89864
1 18.6869 49.2128 15.565
1 10.8265 10.2019 4.66842
1 53.6423 17.8036 12.178
1 8.71458 52.292 8.28282
1 18.0296 48.9117 14.2899
1 45.6603 38.9015 9.95131
1 25.2361 4.09928 38.0144
1 22.3971 50.8655 30.3892
1 38.0182 44.0372 11.0544
1 10.4142 30.559 0.214438
1 50.8064 49.0025 9.95916
1 26.843 49.9944 34.1773
1 45.9204 1.07542 21.7974
1 36.2099 25.0946 16.7482
1 2.63403 13.789 11.9629
1 34.0629 15.8165 53.1031
1 18.5567 4.74844 44.9267
1 32.5995 9.0242 9.54122
1 34.6164 28.3683 17.6645
1 20.2613 24.6346 47.9514
1 17.6135 32.7673 48.4746
1 1.8872 17.9429 19.7332
1 36.9248 24.6938 37.7732
1 49.6461 38.8653 7.41524
1 14.7147 20.0436 19.3723
1 2.52105 16.8081 15.9195
1 29.9014 46.2046 41.4751
1 35.1497 16.283 0.207962
1 47.6435 3.50526 5.84194
1 15.7041 9.75907 52.6027
1 27.6669 11.5966 26.5498
1 43.0817 24.8834 35.4782
1 47.9738 52.1916 25.6845
1 33.1889 46.4534 51.2803
1 43.6244 10.7786 9.86858
1 3.47361 0.247038 53.068
1 32.1503 27.1853 21.503
1 49.3812 7.53909 10.5353
1 32.7761 52.2123 1.76273
1 22.7438 47.6216 13.6139
1 34.7909 11.909 24.3308
1 47.3621 18.8664 0.87169
1 35.1476 32.595 16.6296
1 28.3974 45.3976 14.3067
1 50.4957 8.22951 10.0458
1 28.106 12.8915 21.436
1 50.5954 20.1869 25.687
1 16.2487 19.0213 54.0144
1 51.6422 38.6604 5.47767
1 50.6364 0.686697 20.6847
1 0.173902 4.8485 19.9437
1 43.2863 20.1457 13.093
1 50.4938 3.53374 3.49798
1 51.4655 1.69169 31.7508
1 13.422 53.9342 33.777
1 46.6142 2.94152 52.4405
1 42.1085 12.6044 8.96826
1 42.27 23.1954 30.7906
1 42.8438 22.3321 29.6622
1 29.7579 17.765 26.0438
1 44.0742 21.1875 27.308
1 10.0133 0.439595 35.4746
1 38.4598 1.29251 27.0847
1 44.1187 53.859 25.0396
1 37.8916 16.0625 17.4524
1 36.7436 37.3456 13.3625
1 6.55101 28.9064 2.54195
1 39.5165 19.0179 26.5542
1 47.426 23.5074 12.2448
1 2.94632 22.4646 27.5679
1 29.2698 40.7889 17.1207
1 34.9724 21.5849 20.4227
1 2.72767 33.1738 2.74392
1 25.9915 45.7764 17.5046
1 48.6053 53.3458 23.6542
1 27.1029 14.895 17.8724
1 42.7303 7.50557 27.5443
1 48.3438 24.1619 11.3376
1 36.0212 17.3856 0.385334
1 28.9532 46.7799 11.9425
1 35.0548 54.0166 32.8808
1 38.1142 5.10794 22.0718
1 14.8819 18.0507 9.54887
1 20.78 14.9726 8.06334
1 41.1893 1.92293 23.8519
1 40.3186 17.9453 25.753
1 18.7916 21.2394 51.3339
1 24.1577 50.7211 33.6628
1 49.9675 40.4562 7.59742
1 45.7211 40.3978 10.0086
1 44.2564 3.58012 2.80366
1 1.95771 35.4563 3.48143
1 18.436 16.2967 34.8439
1 27.1959 45.1846 32.3963
1 46.8027 42.5555 10.1492
1 3.11784 0.738469 33.9577
1 27.3842 28.7356 31.5023
1 4.18921 14.241 9.79591
1 46.4037 12.3716 15.7679
1 35.3698 15.2035 19.9223
1 1.03759 21.348 9.40452
1 0.522542 37.4766 3.15555
1 48.664 41.3479 8.59351
1 33.4012 35.9802 15.8631
1 44.4449 42.5756 10.6468
1 50.5613 28.9029 8.15282
1 9.6706 0.545614 42.4507
1 44.7093 22.1831 12.8322
1 39.156 11.6374 16.5487
1 53.863 42.3981 2.85546
1 26.858 17.1426 35.8058
1 28.0911 44.7518 34.5937
1 53.387 14.9023 19.5139
1 21.1251 48.8654 24.5246
1 48.8949 3.61834 29.216
1 1.68969 12.8644 2.76485
1 25.9981 25.595 39.6589
1 28.5213 38.2732 23.0645
1 29.8256 13.5122 33.6823
1 16.5468 52.582 30.5865
1 33.71 3.25203 28.0691
1 42.0544 9.5361 17.4657
1 18.0264 22.029 52.1212
1 31.0533 18.3735 22.6014
1 26.385 14.0317 22.854
1 13.343 8.36512 53.0623
1 37.2664 8.71527 7.84784
1 9.93564 20.3041 28.2106
1 34.4386 17.1026 20.8425
1 1.76668 0.0277057 38.1757
1 20.3901 28.628 46.0697
1 34.3307 12.7942 54.0253
1 26.5632 43.7401 22.4004
1 45.7285 44.6605 11.1048
1 14.2731 19.1575 3.30969
1 49.0542 19.9634 25.7924
1 53.0583 7.0226 20.2691
1 51.5119 41.266 5.47392
1 18.3354 18.3162 28.4438
1 28.1021 40.5585 24.287
1 4.98788 35.6715 0.869651
1 44.1733 19.2389 25.7042
1 23.0286 6.73453 37.1624
1 44.8852 14.1482 14.4653
1 33.4912 19.4728 21.3132
1 52.7031 18.5318 23.3031
1 27.5349 34.3207 32.4508
1 51.5305 40.0466 4.82151
1 53.1045 1.5041 51.956
1 48.3651 25.4028 10.8802
1 41.2056 7.27438 28.0053
1 21.0859 51.1419 30.5182
1 46.224 24.2279 12.4453
1 29.4525 28.6926 25.7247
1 41.717 20.5724 0.394057
1 50.9389 12.6643 21.3321
1 52.26 19.4057 24.1219
1 47.0982 27.4651 10.4189
1 30.8277 14.6182 29.9988
1 32.0354 0.381762 33.8995
1 32.7457 52.1721 49.3424
1 46.9003 41.1971 9.82257
1 37.8353 6.0417 20.8037
1 28.6091 46.6818 35.755
1 26.3986 43.8016 20.8855
1 37.0321 11.9413 23.4327
1 46.7102 18.1553 3.35897
1 6.25304 0.918233 17.8858
1 29.7891 19.8262 24.9779
1 7.05649 21.0637 34.4033
1 46.6298 0.644995 46.0903
1 23.0809 7.73412 36.1321
1 43.1961 4.74331 20.6368
1 52.4152 40.3871 3.63919
1 40.2126 22.0896 50.2693
1 33.5156 17.9986 50.1151
1 29.4194 37.9706 22.0303
1 40.6192 4.95859 12.2351
1 34.6143 20.0271 49.34
1 37.9863 37.8219 12.3603
1 42.3068 8.33685 18.3203
1 35.2644 4.65886 7.28766
1 27.41 4.52822 35.1384
1 0.89258 6.14456 7.85128
1 5.34879 31.5939 1.9546
1 32.5524 11.0376 16.9433
1 32.9958 7.30214 51.2511
1 15.167 21.0052 0.862269
1 44.7213 19.881 13.0874
1 53.887 0.825846 37.5746
1 48.5213 20.8861 26.795
1 52.7672 21.5278 10.3113
1 53.154 30.686 6.3057
1 27.9508 53.7296 38.6737
1 35.0987 15.7774 21.0979
1 49.2462 36.4575 8.53683
1 44.7019 41.1084 10.6298
1 12.7221 39.4721 0.798185
1 46.1078 2.99665 33.3556
1 50.8704 19.2824 24.3662
1 51.5369 21.8363 10.8662
1 27.3239 43.6184 34.7397
1 43.0965 13.3456 8.15694
1 46.9626 20.9168 12.8006
1 46.6598 23.2835 30.0815
1 46.2919 29.9641 10.8523
1 48.9776 52.7207 12.6249
1 43.3113 40.3962 10.4965
1 41.0699 41.5272 11.0158
1 50.7325 41.5546 6.50647
1 18.1422 19.6962 21.7038
1 48.8157 38.0654 8.36454
1 54.1725 6.78867 8.62085
1 38.594 10.314 23.3265
1 8.78442 20.5027 16.7752
1 28.8975 44.438 38.1935
1 36.8984 19.1588 26.4302
1 28.6084 0.645957 42.3016
1 52.6892 2.2349 10.1597
1 41.1893 20.4366 14.6764
1 33.3151 16.8133 50.9471
1 33.394 48.959 51.074
1 47.9509 16.8865 24.0816
1 35.3433 4.45904 24.9299
1 38.8652 3.55668 10.6461
1 47.3487 21.0221 50.6171
1 38.091 2.15797 26.0584
1 4.79994 30.6893 2.8063
1 13.5085 6.93554 15.6576
1 53.2549 33.4633 6.00183
1 5.87713 34.8259 0.516538
1 42.0728 49.99 32.8649
1 18.1485 19.311 35.4671
1 47.2357 47.1712 29.4411
1 3.60554 22.6554 28.9598
1 36.1505 15.6288 18.6426
1 46.3472 53.628 24.5063
1 36.8217 3.53531 8.46766
1 9.70647 20.1592 29.6891
1 50.1734 14.6618 14.5527
1 23.5607 11.1805 33.5209
1 2.49904 9.96484 11.7517
1 27.1473 41.6607 21.83
1 42.2896 11.5486 9.81811
1 22.7538 54.157 36.6278
1 12.6684 24.9661 3.00653
1 10.4812 44.7861 3.36184
1 45.9786 25.3907 11.5719
1 44.9148 23.5059 12.744
1 0.336359 40.1026 2.41811
1 2.97365 35.9983 2.54259
1 34.5496 10.3901 26.408
1 32.6025 10.5716 29.6945
1 13.1497 19.2709 32.3707
1 29.1262 24.1477 25.3553
1 21.039 24.7671 46.7891
1 45.2442 18.5822 3.03564
1 27.3104 2.2791 38.0708
1 30.1798 9.84069 22.6086
1 6.96069 0.19121 49.7806
1 52.647 0.814318 19.738
1 42.7959 3.52804 36.8039
1 26.5107 38.6976 38.8255
1 45.6124 4.75525 19.7711
1 40.8455 2.80096 22.7797
1 40.0309 22.7975 14.5174
1 41.8897 49.2451 35.3322
1 26.0151 38.4913 43.6211
1 34.3188 30.8981 18.5084
1 18.6975 28.1129 48.5364
1 48.8979 10.3266 9.66384
1 21.4225 0.419739 36.6903
1 23.4768 31.8402 43.5603
1 49.2029 11.9173 23.3659
1 34.6276 24.67 34.0012
1 26.4931 54.0487 38.4947
1 14.8415 26.0704 -0.0761316
1 26.9939 43.6506 32.0481
1 37.0371 4.44992 22.7931
1 30.3592 45.693 10.487
1 31.4196 7.59609 23.7137
1 31.3499 52.0894 42.4913
1 22.4603 48.2209 24.0775
1 0.76813 17.6414 11.8064
1 18.3254 34.1347 48.7015
1 26.7022 47.4499 31.6571
1 30.8775 0.986865 46.118
1 28.7472 51.5605 37.81
1 50.7694 25.6333 9.68448
1 33.698 3.37604 5.61453
1 29.9515 43.1374 -0.0108995
1 16.1811 49.7651 19.1351
1 39.0311 24.9781 14.61
1 31.9834 1.66115 1.86128
1 41.3959 7.58202 18.9614
1 36.9265 6.15665 32.7848
1 22.8304 25.1663 44.5973
1 14.5234 6.33358 49.9466
1 44.2115 24.3474 43.8841
1 24.4042 49.4753 29.1731
1 30.9449 43.6052 50.7535
1 14.2417 52.6652 29.6969
1 32.3734 30.85 20.4826
1 45.598 14.3952 23.4116
1 39.3177 4.27816 21.4434
1 48.5473 18.161 24.0279
1 29.2085 10.8977 22.7343
1 21.6708 48.6015 20.1651
1 20.6689 17.6566 28.731
1 32.1497 17.532 45.0198
1 51.9903 5.29896 17.4127
1 25.5897 23.1457 39.614
1 43.4732 51.207 27.6776
1 27.4581 45.6816 33.6867
1 41.755 -0.0552186 25.7134
1 25.3362 49.3782 30.385
1 1.53221 5.5367 18.2999
1 12.5194 50.9187 13.9231
1 30.3177 34.0227 21.6252
1 0.383347 3.23294 22.1137
1 2.6636 20.5688 41.0659
1 38.7732 51.6738 32.3286
1 49.456 26.037 10.2914
1 34.195 2.43964 29.1213
1 44.4529 9.35619 25.2544
1 15.2528 9.56311 49.4701
1 26.3209 31.8779 35.6059
1 38.8508 24.098 31.9761
1 38.722 8.99705 25.5345
1 34.5581 3.31928 27.0839
1 44.5973 3.13631 35.1357
1 1.30816 21.2987 25.4735
1 29.2697 42.2195 43.1301
1 40.4264 51.9177 30.1032
1 32.7543 53.768 34.8185
1 45.1425 4.82667 28.9984
1 34.2026 24.3517 31.6394
1 32.8208 20.4523 30.2378
1 36.8051 3.65966 41.0462
1 26.9855 43.9284 29.8296
1 48.3594 48.6635 28.5551
1 8.67682 52.5869 13.3425
1 37.9433 50.7323 35.8239
1 4.77977 1.19568 23.3922
1 39.1911 6.51683 29.3754
1 32.0973 20.6165 28.95
1 35.4892 13.3057 22.485
1 38.5862 2.95052 23.5876
1 34.0042 0.972573 5.37765
1 25.3179 5.15449 48.6688
1 33.6961 9.4023 11.7195
1 39.7704 9.0012 17.6866
1 37.6655 35.0434 13.3766
1 35.3064 1.56146 29.0394
1 10.7451 2.81997 50.5602
1 16.297 17.6339 33.2675
1 46.6366 48.4826 13.1005
1 9.60025 53.127 24.6538
1 11.0855 29.2957 0.550943
1 16.9737 19.8602 22.4201
1 25.9192 38.472 35.1754
1 13.757 15.8757 40.6768
1 24.1275 52.3519 35.5908
1 34.3316 6.87479 21.3714
1 42.4987 0.957308 23.7086
1 22.8165 16.2003 46.6992
1 35.6712 3.09936 45.2756
1 12.4651 29.073 54.3296
1 8.93038 52.8546 23.2905
1 43.2508 2.22288 21.9798
1 1.93212 1.91431 24.3607
1 29.6247 52.6263 37.1941
1 45.7889 4.71843 8.86302
1 28.8618 53.7977 37.4612
1 23.9261 47.7734 22.0406
1 4.29702 0.984636 24.8065
1 26.3742 39.0828 36.5151
1 7.1395 23.4901 5.38531
1 40.5848 49.6168 35.7178
1 52.147 35.9505 6.31218
1 30.427 0.351167 36.0598
1 36.0958 15.5376 23.4432
1 40.2954 8.20357 27.3543
1 33.6063 34.712 16.4937
1 27.388 35.2155 31.4118
1 42.8777 42.84 10.853
1 7.14839 6.21729 53.7456
1 48.5966 5.08607 27.0442
1 33.4446 22.395 45.5701
1 35.2679 50.8684 36.6354
1 16.2982 33.7124 50.2313
1 27.2575 39.4425 31.6488
1 2.20833 19.966 43.6316
1 26.1777 34.6273 36.122
1 30.3212 8.38161 26.0177
1 11.2731 20.1885 15.3382
1 48.3302 25.6812 38.4978
1 26.7898 40.8398 31.6798
1 39.2478 14.334 7.20125
1 48.951 51.3117 12.7126
1 40.6151 49.9525 33.2264
1 35.5386 0.642177 30.3396
1 35.699 6.33078 21.5048
1 12.8718 13.0915 44.2307
1 7.15759 0.147013 43.1684
1 37.72 18.8958 53.4566
1 31.995 2.06528 32.2087
1 38.946 2.03985 41.6497
1 23.9072 16.2116 45.7324
1 39.467 0.366583 26.7997
1 43.8156 28.3911 11.4969
1 28.4168 0.393551 39.8442
1 46.4252 47.1267 12.5716
1 30.2273 50.0409 41.3079
1 41.5456 9.34655 10.7197
1 29.1824 49.0177 38.5664
1 24.5986 5.53511 47.1481
1 46.4728 33.7044 9.31276
1 41.1563 17.6061 15.0917
1 33.5773 20.6082 27.3846
1 33.1355 6.5585 35.7405
1 17.2165 48.6438 23.1078
1 12.6168 1.9792 45.1065
1 33.1672 14.5126 52.4939
1 26.9187 42.7995 35.8243
1 16.0128 10.1348 44.2595
1 14.9144 12.3351 43.2882
1 42.7632 0.192075 24.7118
1 2.81615 8.67902 37.9303
1 48.5916 29.4633 9.55499
1 1.90606 23.0248 7.12105
1 24.5728 48.1785 28.7114
1 41.0994 21.7531 14.2236
1 34.1351 8.36848 30.0614
1 49.7772 6.32472 17.9729
1 31.1812 52.6776 43.8371
1 34.2019 53.6283 34.0014
1 30.6615 45.2926 1.03127
1 40.809 9.91407 24.2686
1 21.4938 53.8454 39.9758
1 48.1772 28.1384 9.90378
1 38.279 31.3448 13.2453
1 31.304 7.31903 26.1218
1 47.3262 18.3772 13.5623
1 34.7838 49.9056 37.3912
1 36.7978 7.26393 29.0391
1 34.7139 4.7504 23.4652
1 21.0285 51.8902 31.8001
1 42.8935 22.1369 49.6986
1 51.3852 10.2641 20.2046
1 48.7765 1.74381 37.7427
1 38.3835 39.3225 12.5255
1 8.63513 0.298268 41.1999
1 22.2619 17.3891 26.6524
1 46.9166 45.3029 10.9238
1 34.5663 8.9076 28.5423
1 52.6991 8.77046 9.2324
1 26.2468 6.71218 33.8966
1 40.9865 8.80207 26.3256
1 28.8373 27.0787 36.4888
1 47.4799 31.567 9.56879
1 19.0172 23.1275 49.6493
1 38.8722 4.44369 53.2118
1 31.5429 34.8085 21.1934
1 38.9294 53.3494 28.8484
1 1.37004 4.34863 19.3034
1 28.7583 1.26495 44.6855
1 40.5207 11.7346 23.0239
1 35.7413 24.1294 33.5588
1 28.8621 48.7449 37.2844
1 30.7616 44.3509 47.0569
1 51.1585 5.86568 11.0567
1 30.9823 0.990257 34.7225
1 44.7119 4.1873 6.66994
1 47.8568 19.6075 12.9795
1 10.315 52.1474 17.1417
1 32.3993 48.445 46.5118
1 14.4761 25.1574 0.994502
1 11.357 35.8345 24.3721
1 32.9989 5.92196 24.8549
1 28.8995 4.53684 32.9502
1 40.688 12.9164 8.49375
1 3.12789 0.336204 37.6306
1 30.1848 52.9421 41.4684
1 10.1923 15.8717 43.1887
1 30.7406 2.69611 32.7254
1 11.7563 42.4888 2.55676
1 34.2378 0.911668 32.3385
1 26.5491 48.2535 30.3637
1 39.4271 3.32199 22.5117
1 15.2474 33.6285 51.0796
1 45.2974 23.2846 30.4859
1 41.7986 4.00846 20.9656
1 44.0984 0.98551 45.5285
1 18.8382 13.1558 3.14953
1 43.0812 8.95613 25.1548
1 39 16.4691 16.5874
1 43.8881 5.63393 28.7761
1 26.6223 45.3502 30.2409
1 41.0164 44.0595 11.3818
1 43.9815 9.48964 10.158
1 45.0365 26.2759 11.9598
1 8.04514 0.793843 44.1032
1 41.8989 3.04569 51.1537
1 0.353184 1.09758 34.5579
1 24.7426 4.56652 45.0738
1 38.7161 50.0343 36.8273
1 38.9271 20.4667 15.7584
1 46.6961 3.63781 3.33913
1 38.699 7.86838 27.3572
1 0.695534 4.78556 7.63953
1 32.2502 25.0879 33.2726
1 33.2863 4.87457 25.9962
1 30.6282 44.3669 44.5188
1 32.514 25.0162 37.4942
1 22.3322 47.7834 12.2139
1 51.0389 20.6845 11.4108
1 24.5267 47 9.07299
1 31.6642 9.87503 33.863
1 35.6236 24.0011 32.1188
1 29.927 0.540211 45.0495
1 46.9592 4.20798 20.1689
1 37.7967 24.1135 15.2458
1 33.6133 4.4909 45.3986
1 38.1505 20.1143 16.9467
1 38.528 9.26063 17.0586
1 46.5712 6.42375 26.7792
1 26.907 40.4472 50.2969
1 42.2885 19.5909 14.0319
1 1.6344 15.1115 1.0872
1 2.52408 1.10978 31.3471
1 24.4441 26.6259 41.6151
1 40.7815 14.9453 23.7769
1 44.1184 15.7777 24.1196
1 41.5354 5.83926 30.007
1 45.1275 2.72957 37.5916
1 37.3537 49.021 9.86262
1 28.7361 2.2915 36.1745
1 44.136 3.05101 36.5601
1 6.27993 24.6202 4.83351
1 31.8348 5.6973 43.7763
1 30.6709 7.83196 45.0671
1 32.3905 46.7306 48.4309
1 36.8926 4.06694 34.6871
1 40.8355 3.18157 39.9339
1 26.7069 41.2357 35.5217
1 36.5591 33.159 14.3793
1 31.3759 21.994 44.3498
1 40.5647 35.017 10.6173
1 12.057 36.2678 54.1688
1 13.8216 20.6617 3.04759
1 9.4952 45.8855 3.58149
1 6.11125 19.6696 15.3168
1 26.8484 36.2568 33.8024
1 15.3085 40.6705 1.52643
1 20.6988 4.41751 42.0632
1 28.0869 15.1638 34.3885
1 35.2018 9.69887 4.81746
1 28.5702 32.857 28.5886
1 30.5808 3.80926 3.03574
1 20.8112 10.3188 37.8052
1 19.8607 6.69482 42.7697
1 27.1561 39.7087 41.3755
1 34.6121 48.4275 37.4751
1 32.2503 17.5217 22.1149
1 21.6471 12.0509 2.20953
1 47.6139 15.5957 6.80871
1 26.8064 27.678 35.1104
1 2.93536 22.0969 7.93685
1 49.8615 24.9934 40.3475
1 42.012 3.8567 34.6934
1 29.9407 50.8449 40.0603
1 20.8537 7.53796 48.9601
1 50.0008 9.47462 9.26499
1 4.09333 54.2564 38.719
1 49.7642 20.7449 12.1927
1 40.0994 1.73847 24.8732
1 29.2593 3.72746 50.7135
1 31.7891 47.3927 2.59562
1 18.7725 4.57078 43.6826
1 27.4854 32.8674 32.1751
1 45.2651 4.28103 5.28354
1 38.9079 35.4518 12.4638
1 30.6813 4.82476 31.3868
1 10.2859 39.5193 1.01254
1 17.3526 45.6271 6.85273
1 36.7721 52.2849 33.6143
1 41.0918 19.2797 2.16478
1 26.7089 15.4813 19.1448
1 1.17346 2.02468 26.8176
1 33.3656 5.80527 5.95515
1 28.5915 5.16231 52.563
1 38.6009 3.66564 37.9609
1 53.4093 51.5028 8.21863
1 39.4147 9.82981 35.8662
1 46.0242 2.97181 34.7032
1 27.4542 43.0299 30.9712
1 29.8044 53.9529 42.5485
1 14.6162 11.6941 1.2771
1 27.0892 39.8581 38.9699
1 34.7074 9.34876 1.85215
1 15.8295 28.5885 50.9453
1 20.5915 48.9254 17.0513
1 12.922 5.72064 51.5735
1 37.2719 16.4386 3.9228
1 30.268 22.4569 43.4613
1 10.5197 6.77656 2.45606
1 28.3953 20.4062 28.5221
1 41.9212 2.81498 21.7959
1 52.6951 2.77562 27.5485
1 17.031 5.10406 46.6672
1 22.9855 6.28033 48.5227
1 23.4597 5.76594 46.3517
1 14.8983 29.8552 51.0924
1 45.4741 1.42674 41.4102
1 1.87188 24.4384 32.4133
1 11.1215 31.5755 53.3245
1 25.4605 47.3141 26.6451
1 40.8206 3.68588 1.15023
1 25.9596 9.80422 30.911
1 10.0391 1.61512 45.8847
1 27.7959 14.4858 46.6135
1 25.9328 14.3655 24.3397
1 45.1199 3.26551 32.3721
1 39.9962 50.9935 32.296
1 10.351 36.2839 25.0266
1 33.5304 33.0856 18.4176
1 53.1028 1.07129 36.5842
1 31.7389 20.6715 46.4368
1 22.0199 3.70874 42.0647
1 15.4766 27.4932 51.7472
1 12.6672 0.572997 36.3075
1 32.9401 47.8987 6.87287
1 34.7054 3.53584 42.8046
1 46.8716 2.74682 35.7073
1 28.5797 13.207 35.8547
1 34.2329 11.5473 0.356739
1 28.2578 49.2446 34.7767
1 43.4042 19.6301 1.82397
1 52.5566 52.1634 9.19021
1 31.3887 6.42559 42.513
1 46.632 52.918 13.2777
1 43.36 3.6102 34.3288
1 38.9245 18.4098 2.84717
1 31.8869 3.32506 3.62679
1 14.3682 32.3142 51.3458
1 38.3025 10.5714 16.4469
1 13.061 10.0815 50.3019
1 1.57705 19.4919 48.4742
1 45.612 7.65696 10.8882
1 27.4969 41.2898 29.4873
1 49.9876 4.64558 18.3434
1 37.152 15.0306 17.8757
1 9.35946 49.3845 5.64137
1 41 5.01421 31.2132
1 30.4587 8.71324 23.7364
1 30.8341 10.3719 34.6603
1 28.5953 16.8359 46.4886
1 32.4364 50.9396 46.8189
1 30.8125 1.85706 50.9946
1 53.2855 1.14664 35.1154
1 49.056 13.4162 22.9927
1 28.9753 10.9706 39.4998
1 12.5025 31.2545 52.884
1 45.0998 51.1806 13.4415
1 38.3813 46.4015 10.7839
1 43.7702 47.7247 34.7302
1 48.1447 51.3503 26.6902
1 6.74909 18.9413 50.9533
1 44.781 27.5025 11.1408
1 40.1979 47.6291 11.8741
1 11.9506 9.97059 3.77608
1 21.7367 30.1784 44.5782
1 40.8023 7.28231 11.5533
1 38.8388 2.27254 24.8428
1 37.5999 2.70856 41.9854
1 21.735 11.2601 35.6192
1 26.8526 42.456 -0.0220307
1 30.0074 45.9983 2.27627
1 21.2169 10.2772 53.2506
1 44.3956 49.9816 13.3627
1 50.5416 18.3397 53.2725
1 30.9281 1.31475 48.494
1 42.2685 10.1795 24.338
1 33.6406 2.04534 30.3723
1 40.637 14.069 7.56446
1 43.7803 3.66786 32.9094
1 30.5059 24.2614 23.4649
1 30.9146 43.4237 49.1281
1 9.41368 50.4924 6.43841
1 4.23503 23.6136 6.0603
1 4.07714 21.7362 7.37586
1 27.8719 8.21982 3.98987
1 33.1927 5.78294 48.8986
1 52.5142 49.3187 8.18255
1 5.97008 45.5751 2.56746
1 17.5613 11.1897 53.151
1 42.9941 4.17489 31.8448
1 37.5674 5.22383 33.6511
1 33.4879 4.1959 42.759
1 11.6604 51.4848 19.875
1 16.6025 49.2292 13.8794
1 23.0175 10.4449 0.791995
1 32.1846 5.06875 26.9263
1 36.5034 53.6096 32.7244
1 51.0403 52.0799 23.6923
1 42.81 50.0228 30.1085
1 38.7194 53.9432 10.1355
1 11.1495 19.8911 27.7372
1 40.4055 0.578571 25.6825
1 32.5844 47.3798 5.57552
1 8.25641 52.5581 7.05617
1 22.0999 5.73223 39.5492
1 43.7674 16.6756 6.20215
1 39.9283 49.2223 36.8956
1 23.1099 3.98805 42.9922
1 22.3296 17.5474 46.7059
1 39.9683 26.5794 12.6579
1 10.8402 28.7469 1.85498
1 41.6462 3.4704 35.8264
1 26.7534 40.5162 36.5695
1 45.286 53.5599 13.0635
1 38.1273 22.9779 16.0086
1 43.0911 20.1309 0.381655
1 44.5804 48.5832 31.3938
1 53.8115 14.3103 18.136
1 30.7224 18.5088 46.7957
1 51.8177 54.0186 10.4127
1 32.9103 43.1291 11.0939
1 26.432 16.0753 44.7517
1 51.1047 0.980928 38.4463
1 32.7145 10.3929 13.7139
1 7.22189 0.478144 48.3396
1 21.1739 11.5167 36.9319
1 3.68906 19.4477 19.7941
1 53.6844 19.9265 49.5762
1 29.3898 46.8139 38.3365
1 21.0967 16.721 50.0463
1 27.3177 25.1282 40.1333
1 24.0458 7.83921 51.1473
1 37.3616 3.38347 23.5453
1 27.3442 32.0248 33.3905
1 26.974 42.9617 33.3912
1 0.225576 0.591969 39.946
1 27.6917 6.34992 0.676687
1 32.6447 18.0927 49.0226
1 48.7447 5.34316 11.3008
1 44.7376 4.20441 30.2851
1 40.683 17.4761 3.80436
1 21.5891 16.6783 48.6905
1 34.1967 3.90773 25.9264
1 35.3091 12.986 1.9236
1 53.5262 2.23062 28.7049
1 50.9708 20.1002 50.0535
1 12.0413 1.04092 42.7999
1 26.0756 50.9413 34.843
