3987
Lattice="54.185901 0.0 0.0 0.0 54.185901 0.0 0.0 0.0 54.185901"
1 46.2802 18.7797 1.17125
1 6.1069 4.50981 0.583594
1 24.1172 14.6844 18.4298
1 10.6273 17.0988 6.33883
1 13.2229 6.60872 1.6592
1 33.1239 15.6615 48.907
1 24.2059 13.1857 20.2837
1 5.48392 50.8578 2.90108
1 27.9163 37.0465 23.2503
1 53.8011 12.312 3.83093
1 14.1295 49.7684 52.219
1 35.3913 13.238 0.385717
1 38.3127 0.336644 27.8885
1 3.954 7.62967 9.90461
1 22.9244 12.4197 11.3604
1 4.68349 7.42035 54.2434
1 27.961 3.87326 1.98725
1 6.3571 7.91948 6.88026
1 11.5228 3.50735 40.982
1 29.5787 13.6689 40.8064
1 0.484927 52.8452 3.46794
1 47.6376 25.6745 35.357
1 34.6738 54.1714 10.8607
1 3.29991 0.687519 40.2438
1 6.38742 53.5884 4.91868
1 42.4617 29.2478 11.8227
1 39.4758 24.6588 39.5942
1 8.68427 49.0124 4.35182
1 6.13948 13.5512 9.87952
1 24.677 12.3675 29.795
1 6.41058 49.7256 3.16544
1 4.81006 7.14851 8.63417
1 20.7117 13.3006 10.8613
1 52.8682 34.0612 6.39446
1 32.2646 14.7656 48.5095
1 47.2163 16.383 4.44595
1 33.5091 19.4713 46.5836
1 2.83874 53.0938 46.632
1 40.1761 51.2599 12.5067
1 22.1416 14.744 14.2717
1 24.1492 11.1142 9.40395
1 44.1923 12.9138 8.86492
1 4.23036 48.9924 1.95951
1 33.2918 4.81308 27.1972
1 31.82 41.3149 15.5358
1 31.9402 52.2945 49.8968
1 41.6554 22.2366 16.8603
1 24.7781 46.5611 9.36664
1 12.285 3.09733 43.3643
1 23.7513 12.9791 28.9771
1 32.6662 31.8943 20.2516
1 29.5402 30.8016 24.1402
1 47.3354 25.5582 32.6508
1 28.5587 3.97977 4.72829
1 40.5419 10.4759 10.1963
1 7.34546 15.7297 9.59238
1 53.8068 51.8299 48.1854
1 49.637 16.0776 3.9476
1 39.8265 51.2685 49.4576
1 4.90721 15.6644 12.4845
1 11.6567 38.996 -0.0659311
1 3.99323 52.7235 53.7458
1 29.5115 6.06529 11.8499
1 35.331 44.9345 9.71775
1 51.1893 12.2062 7.03922
1 53.8497 4.41328 6.10593
1 13.182 16.2809 4.76078
1 25.2783 11.0928 11.5054
1 2.95641 24.1354 9.52374
1 29.4499 10.4588 24.6377
1 3.7791 12.9731 50.2842
1 28.8355 16.8877 29.5728
1 32.6221 40.1108 15.1085
1 46.1644 15.9054 5.35036
1 0.47066 6.6829 6.1751
1 20.1577 43.4038 3.79309
1 29.6334 4.53677 9.50652
1 47.959 17.564 2.2788
1 38.1867 11.6631 7.2667
1 1.09266 2.48797 5.22485
1 25.9207 25.8192 33.779
1 27.2326 8.99291 15.193
1 30.6923 45.3637 9.19262
1 25.2314 3.2682 45.7248
1 33.5299 48.5808 6.81368
1 2.27821 6.01487 3.99584
1 8.68659 45.6374 1.83716
1 51.151 23.698 39.017
1 30.0759 2.382 8.34012
1 -0.105639 11.3597 4.90177
1 16.6415 17.3061 25.0238
1 3.27878 50.9084 1.34301
1 49.1347 50.5291 50.0527
1 37.4486 51.4036 11.1013
1 0.439813 9.34033 49.4824
1 40.3981 29.7749 13.0568
1 47.8957 8.37204 18.6558
1 31.3436 0.165218 8.40844
1 38.7703 16.9812 3.85216
1 9.98341 7.22721 3.02649
1 30.9534 9.99287 43.709
1 32.4996 36.9897 17.1795
1 52.8018 52.3954 43.2183
1 6.21844 25.0319 5.94883
1 39.4442 10.6526 9.33366
1 9.61863 3.56891 38.9605
1 20.9684 13.9802 12.3018
1 3.27798 1.45004 3.69415
1 3.20225 15.5728 13.8933
1 30.2473 31.7309 23.4046
1 39.6056 39.6118 9.28252
1 3.81081 8.9349 10.2114
1 16.2136 53.543 13.7439
1 7.71978 25.417 4.05044
1 50.9247 15.1901 3.7423
1 13.7067 23.6454 52.4945
1 17.4453 4.87641 50.5099
1 10.0024 22.7911 2.12141
1 52.9149 14.1061 2.59674
1 3.45082 20.8545 23.2951
1 22.7472 49.4579 13.1838
1 11.7911 4.71596 1.08283
1 19.8424 14.888 12.4143
1 3.97096 8.68973 0.260298
1 36.9554 22.4302 44.427
1 33.9259 15.7379 20.9164
1 11.585 3.9527 37.3004
1 3.0665 38.0177 15.1437
1 9.85698 12.6381 6.52308
1 33.6643 34.1491 17.2841
1 14.9689 14.2708 5.02156
1 7.68292 8.58437 4.55857
1 1.07694 7.73777 5.56629
1 43.4266 23.7337 44.3164
1 17.9776 53.2833 19.9689
1 5.07988 34.3758 3.00791
1 26.8075 7.36135 7.28013
1 7.24326 50.7697 5.23015
1 12.6177 17.2598 13.3256
1 51.2644 10.3724 9.03153
1 31.9651 27.8263 0.529279
1 4.81131 26.7463 6.78417
1 14.4704 18.2836 24.9239
1 7.31304 43.7351 1.4905
1 28.8823 2.75351 2.29653
1 33.5911 11.9125 50.4375
1 18.5024 14.889 11.8669
1 3.41882 6.78642 2.0274
1 1.52367 53.4864 41.6055
1 17.1785 14.1619 8.3526
1 6.6565 53.9464 53.3231
1 3.58275 10.9719 11.9877
1 4.25628 50.4114 2.53553
1 32.1405 38.2472 16.9225
1 6.35033 5.35834 32.5575
1 10.2195 13.9934 7.38244
1 42.1165 3.56678 11.9501
1 17.3789 15.6739 12.5811
1 35.8195 20.9648 47.0241
1 43.761 3.61202 12.1782
1 18.4959 15.8985 14.6648
1 3.84893 21.0717 39.2448
1 38.6354 51.9586 49.8597
1 26.2868 3.8244 0.0709865
1 6.00131 1.85281 11.6824
1 52.7775 50.4041 24.7749
1 37.7327 12.6133 5.10684
1 9.37127 1.85242 15.7929
1 29.4349 6.98136 13.2079
1 4.62243 10.0174 9.32788
1 43.4914 18.0891 4.21285
1 17.9435 52.4245 15.1005
1 2.40327 52.0946 51.6836
1 7.7038 1.83425 0.875024
1 7.13501 20.2404 25.6596
1 11.5497 16.2889 7.22894
1 12.3258 46.8837 4.06568
1 10.9081 23.5783 1.60985
1 2.69965 53.2353 2.04076
1 49.1269 12.0258 8.98035
1 51.509 50.115 6.73288
1 49.3688 17.0468 2.4252
1 31.1492 22.6055 23.7738
1 35.3337 7.32074 2.22397
1 7.72514 5.40689 33.1053
1 29.3744 15.5996 29.3117
1 34.8495 50.6282 49.977
1 23.8194 48.9743 17.9067
1 7.26838 10.0231 6.59504
1 49.9863 49.2694 0.712158
1 4.71605 24.6717 8.07003
1 35.5148 10.1426 26.2976
1 26.8518 9.54428 16.3936
1 51.9086 51.4225 49.7464
1 35.4983 10.7998 0.742384
1 10.7028 19.0611 26.8081
1 46.1704 51.6422 27.1665
1 4.96545 53.4149 3.13243
1 5.51432 8.20932 8.0549
1 26.0435 27.6894 35.6328
1 2.33451 37.0907 15.775
1 43.5601 7.78896 12.6066
1 12.1786 24.5739 -0.0943308
1 7.19711 8.61919 5.95557
1 7.38038 4.70246 2.98625
1 18.3206 16.1699 30.9633
1 49.7605 2.27665 33.3881
1 2.71728 12.8221 13.5583
1 5.67607 26.3889 5.79801
1 47.2866 23.8695 38.3599
1 13.5861 53.1529 11.5446
1 5.32691 48.0498 1.69389
1 28.9654 31.3336 25.4052
1 53.6249 6.88771 6.97108
1 31.141 38.4773 17.8695
1 35.5016 53.391 5.62076
1 16.3779 9.95886 3.02393
1 38.1223 22.9636 18.3066
1 26.021 11.2762 20.2853
1 9.94727 53.8494 9.87423
1 45.215 50.8983 49.4514
1 34.8644 38.1856 14.333
1 51.6456 16.319 1.85911
1 9.20718 25.5663 1.86276
1 2.42929 23.0009 10.3592
1 8.39326 16.7691 9.33816
1 3.04098 21.6467 27.6966
1 13.7431 3.67171 49.1671
1 32.8871 23.0197 31.8139
1 9.74507 20.6318 3.32478
1 11.8185 2.49295 52.026
1 11.5159 51.9697 8.99124
1 17.1493 20.1524 50.7702
1 5.4472 13.978 10.9813
1 47.6781 50.7311 50.2737
1 31.7494 38.6278 50.1398
1 47.9338 49.5779 52.4183
1 3.95948 1.17343 2.21465
1 7.43792 18.1292 17.1951
1 29.8245 13.0809 42.0305
1 53.4261 51.312 51.9937
1 33.4024 8.71108 48.6817
1 3.53578 4.31519 12.798
1 9.63643 1.52621 51.1763
1 19.4144 11.0204 5.04756
1 9.56952 10.3574 5.08055
1 6.46959 6.36409 4.67625
1 27.596 16.3798 39.2584
1 53.2283 5.02771 28.4984
1 49.6915 52.2595 43.7847
1 50.2799 51.9617 42.448
1 13.4306 18.4359 22.7168
1 54.3612 49.0793 21.3899
1 2.17785 4.70162 30.3412
1 8.72594 18.9286 17.781
1 4.6061 21.0649 31.6872
1 7.86155 53.8991 8.40454
1 45.2505 18.5403 2.24066
1 13.8493 14.3466 38.3669
1 37.4167 13.9325 18.843
1 44.6829 17.5511 4.36529
1 21.8417 6.24999 1.03469
1 10.6279 19.4609 3.51507
1 35.7544 14.4724 0.763558
1 29.2097 21.4195 27.8748
1 47.4698 35.5293 7.4393
1 21.065 15.8556 14.6944
1 30.7305 6.6973 14.1456
1 21.6115 16.1899 22.4912
1 4.24991 3.25553 13.5314
1 47.0113 39.8128 7.61305
1 14.686 18.1973 22.0181
1 21.7492 12.2832 10.3898
1 10.8159 19.2724 24.0049
1 2.87017 18.6854 20.0833
1 47.0718 9.97736 11.2815
1 25.9812 5.03227 2.22134
1 36.9654 37.6285 13.1184
1 52.5364 2.52242 32.9598
1 19.8004 15.7552 13.7463
1 52.843 16.2688 1.05557
1 13.7544 16.6407 13.9783
1 27.9436 18.702 30.77
1 17.5629 16.7451 28.8194
1 6.08716 2.29111 14.3695
1 48.8249 6.48345 11.766
1 13.3251 3.70811 27.0489
1 34.7737 47.6001 8.62719
1 27.4888 21.647 31.0784
1 1.02377 8.90147 21.8304
1 0.954503 52.4407 44.2433
1 29.0132 46.4966 48.2945
1 19.4037 1.62622 27.7683
1 15.679 17.3681 22.7044
1 12.3166 3.59565 45.9024
1 23.5339 22.8485 41.9695
1 33.9425 6.57645 16.3435
1 6.28812 20.4918 26.8954
1 24.4335 14.8358 17.0028
1 22.7814 15.1901 20.494
1 2.33297 8.60951 11.9283
1 13.5639 15.2324 5.5426
1 54.1178 5.82907 16.0091
1 25.1184 11.5124 12.985
1 44.2171 47.0615 9.92447
1 9.11763 53.3665 8.92262
1 16.8296 17.1033 22.0614
1 9.94075 1.55507 14.3543
1 31.9621 10.0896 47.6499
1 5.44958 2.45186 12.8691
1 53.6253 15.6149 19.1819
1 12.244 2.48647 20.4546
1 43.4643 1.11256 12.3193
1 51.4596 8.57598 17.0992
1 14.0159 31.0427 51.7423
1 20.4677 0.995745 33.086
1 19.1118 14.9785 33.0496
1 14.716 2.99287 28.9977
1 16.2179 0.391016 21.0517
1 5.20276 20.155 10.5285
1 11.9146 41.761 1.01224
1 12.3979 33.2644 52.0952
1 6.7874 0.747046 41.7458
1 50.9411 1.19972 19.3736
1 41.9066 31.9885 10.5962
1 17.391 29.1443 48.989
1 27.4925 47.1834 33.896
1 8.42884 2.74121 19.2751
1 28.7567 17.4882 30.7792
1 47.846 29.6431 8.20725
1 15.7793 34.6786 50.8002
1 31.4461 5.50048 28.8209
1 44.313 14.5842 23.092
1 2.27836 49.688 0.743679
1 40.954 28.6892 13.8035
1 28.7008 19.671 29.9049
1 25.7058 11.1525 17.7391
1 50.8712 18.0344 22.5999
1 35.4173 6.02293 1.77627
1 5.04256 20.0534 21.4461
1 2.52511 22.7957 31.3003
1 7.47635 2.39585 39.252
1 26.8467 39.3182 25.6135
1 9.04748 19.2063 28.7466
1 16.6068 1.01844 23.3238
1 38.8173 25.359 34.0988
1 34.8415 7.4392 18.4701
1 26.0642 46.8171 11.4553
1 22.1901 23.8006 43.8379
1 2.31004 22.2691 28.8916
1 19.7077 16.6506 16.6179
1 33.4503 23.9973 33.809
1 27.6198 5.02248 4.41736
1 20.9442 53.1635 23.4684
1 1.90691 22.3584 39.9909
1 48.2709 42.0024 7.63739
1 31.7569 10.0434 41.1684
1 35.0623 3.15695 28.5556
1 6.12523 5.66358 24.2607
1 5.39849 2.86406 15.3762
1 12.3562 6.00107 49.1769
1 7.96827 4.01369 19.9193
1 19.6741 15.7014 27.5273
1 8.65397 44.3332 1.77391
1 18.2811 12.4789 6.76549
1 36.747 8.92702 5.23417
1 25.7967 11.9189 29.1541
1 31.5663 15.6395 23.7541
1 8.1644 19.9432 27.9758
1 51.827 5.21289 28.9109
1 34.5478 47.7719 44.6364
1 17.3162 14.5481 9.61773
1 29.7661 16.9553 27.4017
1 8.69967 6.05829 31.8507
1 46.4363 51.7404 45.6394
1 5.56242 3.87798 17.845
1 16.9298 16.5869 32.9958
1 26.001 10.661 16.3965
1 10.2386 5.85664 26.8061
1 2.21128 22.9996 36.1262
1 24.7862 27.6508 38.3806
1 3.81391 4.32017 11.2607
1 50.1134 42.6482 6.13892
1 19.9265 14.0016 33.8582
1 27.1881 23.0887 31.2309
1 17.3536 16.1154 13.8725
1 5.23336 17.9922 11.4801
1 50.3938 21.9182 47.078
1 52.8994 4.162 17.6821
1 32.4075 4.67424 28.3226
1 8.16289 5.50407 25.7828
1 33.4294 6.57508 46.4477
1 15.6909 12.0885 4.17466
1 36.2091 33.7773 14.4273
1 13.5232 1.712 20.7741
1 0.894096 8.30123 14.0211
1 37.2753 31.1164 14.5968
1 4.34815 11.8639 11.3391
1 4.49038 2.98307 10.487
1 3.5251 32.2639 3.96323
1 15.2322 17.8557 28.6399
1 34.7313 8.18508 22.3486
1 9.4087 1.42319 48.9698
1 27.0952 11.1746 21.3353
1 52.1073 18.3297 21.8168
1 4.85504 2.73029 8.11309
1 5.07039 21.0988 26.807
1 27.3292 20.7139 32.1772
1 14.6409 7.79575 45.8284
1 33.4049 8.89479 22.2978
1 10.3799 24.9127 1.42771
1 6.01602 3.39904 16.4368
1 51.0517 0.288614 21.5127
1 38.0545 53.6628 48.3144
1 10.9636 6.64797 2.25362
1 12.2704 53.5243 11.342
1 10.5346 34.4346 53.5971
1 18.6109 0.90998 25.359
1 22.347 18.9003 44.8774
1 3.20538 22.3833 30.062
1 5.60876 2.77884 4.10561
1 48.8516 19.3683 15.044
1 20.5655 16.3634 20.2982
1 8.84236 18.131 38.0642
1 34.5503 1.43856 11.377
1 0.739345 24.1381 32.5453
1 27.5778 3.33571 0.685085
1 42.7177 50.9401 48.9345
1 31.2418 0.748099 9.71962
1 42.6366 43.2866 9.82357
1 4.18775 4.95688 19.5175
1 33.6177 23.8387 36.2611
1 15.2302 15.655 7.79248
1 14.2805 49.5003 50.9589
1 2.1366 20.9734 23.9788
1 28.3365 28.1602 27.403
1 15.1235 3.77244 37.7688
1 50.0251 3.14444 32.1108
1 20.7778 16.4857 18.8831
1 29.6166 19.5903 26.2493
1 36.4078 47.4903 36.6761
1 10.1088 2.62098 42.4082
1 14.5356 13.1496 39.2418
1 21.6687 15.7747 21.1375
1 13.961 3.63215 31.3973
1 9.82585 2.11802 17.1474
1 28.5494 21.9687 28.8226
1 27.3576 4.06217 37.0367
1 24.2607 12.7029 13.2216
1 7.8887 1.36886 13.1231
1 35.6552 3.28139 50.7052
1 1.79678 53.5348 3.06327
1 -0.108625 16.1781 16.3644
1 26.0326 26.6106 36.5922
1 8.44045 2.61898 17.8305
1 9.4134 3.9568 22.0458
1 15.6021 17.7151 24.1168
1 26.1404 31.8232 38.6563
1 2.7811 8.96788 1.27576
1 2.03473 6.85592 16.3016
1 2.17457 4.81171 14.9528
1 31.6704 13.3921 27.5759
1 9.25903 1.42474 13.0744
1 17.4738 16.738 27.2694
1 8.3989 5.85065 28.2199
1 4.9347 11.2718 10.1254
1 14.2 1.20799 19.7349
1 48.824 12.6048 7.80183
1 30.4136 4.96648 11.7899
1 12.3574 17.6449 3.08537
1 13.3781 17.7263 33.3195
1 46.1038 0.933888 23.217
1 22.0734 14.9998 27.4416
1 15.6177 2.62938 26.7362
1 37.6992 17.3419 53.2397
1 7.68514 19.4768 33.9005
1 3.48966 6.00453 21.5248
1 7.274 0.473253 9.69593
1 17.5992 27.9744 48.2343
1 27.1582 17.0844 35.605
1 49.8354 12.8541 6.76822
1 42.2425 8.381 12.7724
1 0.978545 17.8609 14.6314
1 45.3397 33.8879 8.2395
1 3.60164 4.82285 8.98592
1 1.99032 27.2823 7.69219
1 26.9468 45.4646 9.54792
1 9.75893 18.977 21.6746
1 35.5414 28.3479 18.3292
1 50.4536 1.29131 20.6455
1 22.1392 15.9432 16.8353
1 26.1806 44.0646 4.74962
1 29.5764 3.65136 8.39119
1 30.4408 20.5751 25.53
1 41.6333 35.7176 8.72308
1 25.9198 45.1844 26.8245
1 44.274 6.41192 20.2324
1 39.3246 21.3743 26.3153
1 5.47066 4.18035 4.68211
1 15.4488 18.0358 27.2886
1 13.6569 16.6278 15.4211
1 36.6307 35.1046 14.2543
1 28.3883 8.26825 14.8542
1 11.5676 37.4448 54.1654
1 6.26206 19.8988 33.4763
1 1.90221 3.69068 31.5018
1 30.0672 8.81457 18.0664
1 19.3995 16.9862 20.935
1 17.5293 15.2273 34.9861
1 0.0585996 51.6026 50.6311
1 6.91813 5.78253 28.6536
1 13.1112 16.7081 8.99831
1 38.8134 2.69145 24.9706
1 2.09094 15.4502 14.8381
1 2.91959 28.2922 6.86527
1 2.64223 7.13606 11.8525
1 4.66096 21.4801 10.4206
1 51.7541 3.12668 31.9187
1 28.3738 26.7443 27.0558
1 35.7392 2.51944 11.6495
1 -0.034298 53.9316 42.1105
1 18.7136 1.85783 34.5136
1 46.2349 7.73221 12.2633
1 33.6494 43.5806 49.0856
1 11.2214 2.23604 19.364
1 50.378 5.08353 18.4557
1 26.1283 7.0139 35.0853
1 30.0909 44.4787 13.8955
1 1.30293 5.96007 15.4171
1 32.629 13.5476 20.8447
1 3.93422 18.2616 17.8366
1 10.8868 18.9415 33.269
1 41.1729 45.6116 36.3315
1 9.29233 17.5689 39.2268
1 42.43 37.8761 8.47232
1 35.3519 33.1089 15.4034
1 29.7099 13.8365 43.0622
1 9.84703 2.50188 19.7572
1 13.2117 18.7626 26.9248
1 11.4886 4.94771 28.828
1 10.5443 18.3883 34.6349
1 52.1497 2.98581 17.7326
1 20.4805 9.68675 2.78245
1 12.1554 19.2347 24.6359
1 18.4681 1.51985 30.7429
1 26.7976 11.1003 29.9123
1 46.3467 48.5786 9.74293
1 25.197 12.602 17.8341
1 14.932 48.6306 51.884
1 8.46513 5.64238 30.4487
1 8.36264 19.146 32.627
1 26.9104 27.4957 31.9231
1 53.5138 25.292 36.4874
1 32.5112 4.2119 30.7754
1 8.50227 19.913 23.8039
1 50.5326 18.2003 0.505613
1 12.2674 19.7655 1.78097
1 10.2775 6.71951 50.6928
1 22.3456 9.30496 34.7041
1 28.729 9.84545 28.4139
1 28.6246 2.22384 38.459
1 0.396896 24.4075 37.1917
1 8.12279 4.19684 21.4586
1 8.0958 19.6065 31.1922
1 6.08952 29.5059 3.5132
1 32.4694 36.2878 18.3901
1 33.9059 2.8766 29.3552
1 12.1872 5.08666 31.9515
1 49.9067 11.0649 17.1901
1 36.7816 22.9231 42.0837
1 6.30585 17.5988 43.2358
1 52.1036 11.2075 21.0077
1 31.5572 1.18267 34.7789
1 10.7222 5.44941 29.9332
1 7.64162 0.661205 52.9893
1 27.0171 41.2966 24.7565
1 15.4539 0.48665 19.8307
1 10.2446 2.87471 0.175805
1 0.679759 15.1004 53.6941
1 33.8716 23.6051 39.0042
1 15.8561 2.72195 28.1425
1 15.4923 16.0505 9.23979
1 7.28278 19.0994 36.2119
1 0.888886 21.8822 26.7153
1 9.705 19.5826 26.044
1 7.24628 20.1708 24.2272
1 21.2012 12.0813 33.571
1 49.4482 25.4286 33.2388
1 3.86578 21.463 32.7678
1 52.5454 23.0577 41.1093
1 53.004 21.3946 46.6761
1 53.4694 13.1969 18.8668
1 6.51589 18.796 38.8352
1 2.76787 17.5951 17.217
1 18.0508 1.5947 32.2084
1 6.15727 14.8459 46.2995
1 15.1597 16.3478 34.9435
1 -0.0598783 28.8112 7.4629
1 5.21423 18.7465 40.7737
1 10.6807 18.8344 22.6186
1 0.855323 20.7737 45.1078
1 36.6263 26.2903 17.8007
1 37.4775 22.0348 45.7679
1 41.043 11.4702 23.8516
1 20.6737 11.3928 34.8415
1 53.3376 53.4899 40.7104
1 19.9148 10.3812 37.1746
1 29.1112 23.8366 26.9537
1 3.71191 1.07432 38.822
1 51.4299 53.5219 38.5992
1 32.9603 35.0194 18.3182
1 24.7574 12.0404 20.9491
1 54.1122 4.59622 29.549
1 3.11584 5.37917 10.3567
1 16.8332 2.35887 32.2594
1 13.4355 6.73111 48.828
1 2.14621 22.1038 37.4551
1 19.0546 4.95915 40.7156
1 53.1147 25.4226 33.8334
1 28.9348 19.1871 28.5027
1 51.6912 22.7947 26.6373
1 53.4053 44.4632 4.8372
1 39.0665 38.2388 9.56859
1 22.1224 11.7015 32.4428
1 16.0572 16.9565 15.8792
1 12.6062 16.0467 37.8251
1 9.2038 19.4958 30.235
1 49.0659 21.3861 49.1491
1 26.9626 18.4221 38.2176
1 7.96443 2.08009 15.559
1 13.7899 16.1484 36.8282
1 7.5715 18.6264 37.7233
1 0.230531 9.95821 21.2831
1 12.6206 18.746 31.4754
1 51.7841 46.3606 5.40825
1 7.17469 31.6712 1.89359
1 12.3894 2.77236 22.9569
1 16.434 2.50291 33.6488
1 14.7017 18.1849 20.5723
1 32.2383 43.4291 12.227
1 21.1502 0.857762 34.3562
1 12.9476 4.46931 30.7126
1 46.6965 8.56376 25.0586
1 9.83897 1.86982 53.416
1 26.0594 23.2985 34.6129
1 29.1904 17.7201 28.4588
1 41.2183 20.6951 51.0159
1 15.9093 3.79429 40.0908
1 11.3243 5.18433 27.2055
1 6.36058 53.9549 6.44371
1 13.8938 16.4751 35.5007
1 13.6277 3.8898 28.3262
1 12.1471 0.855892 13.316
1 2.0538 54.4914 40.6083
1 1.80259 31.6749 5.65364
1 13.8398 18.4425 30.7435
1 52.9738 53.6245 38.4086
1 20.95 15.5203 26.7835
1 52.5214 22.5097 42.5637
1 25.3749 26.6314 49.8702
1 24.2631 11.8762 31.0799
1 53.8558 15.1531 0.781635
1 49.4343 6.12838 28.3183
1 28.8146 17.4046 43.4201
1 0.529434 52.302 45.6051
1 24.6927 5.42667 39.6537
1 10.7599 15.841 40.2264
1 48.4419 3.15719 11.4281
1 6.18562 20.3061 29.6125
1 14.1503 2.93637 26.3726
1 4.31921 21.5455 30.2168
1 12.958 15.3785 39.1029
1 46.063 22.7394 28.3291
1 22.4685 21.3388 43.7111
1 19.7688 20.4154 47.0926
1 25.7606 41.4569 29.6636
1 3.76301 20.2691 42.2497
1 13.8887 3.07734 24.9293
1 17.0132 2.93624 36.0158
1 9.35483 18.3807 35.4469
1 21.9251 54.1677 31.7932
1 13.3753 18.5976 24.1313
1 24.2261 13.2598 23.2432
1 31.3787 16.5639 46.7828
1 53.6151 50.9679 0.0246424
1 0.721997 21.9968 42.2833
1 7.652 30.433 2.13415
1 6.81232 11.33 48.0449
1 20.142 16.2329 24.4908
1 0.873736 10.1903 4.99453
1 25.8327 45.992 30.3583
1 17.3808 2.63825 34.6248
1 35.2186 3.57012 2.05818
1 16.0645 4.55085 50.3932
1 40.6986 8.90017 34.5466
1 51.6375 16.0518 21.1067
1 47.978 52.7713 41.7246
1 10.384 3.42058 21.1703
1 32.0165 27.1888 21.9341
1 1.80164 21.3794 42.882
1 37.5021 24.3635 30.6893
1 21.7278 28.6182 43.974
1 49.0441 12.3324 17.0507
1 8.87646 32.6235 0.591016
1 19.5952 1.97189 35.5803
1 50.538 7.86179 10.2533
1 17.8564 10.3153 3.22532
1 20.5067 52.2487 22.5332
1 49.3405 52.5382 41.3247
1 15.7294 3.75181 36.4217
1 51.2289 22.5434 43.4001
1 49.5804 32.3245 25.5249
1 10.527 16.68 39.0682
1 2.10635 6.36507 13.047
1 30.7138 53.1975 39.132
1 5.34857 5.73392 26.8404
1 47.062 42.7876 8.09171
1 13.6284 9.12471 3.09234
1 28.2373 48.7253 35.7392
1 26.0174 51.7225 33.5706
1 49.6338 52.4335 39.7607
1 5.09017 1.47541 38.316
1 48.1237 5.66905 19.7698
1 10.4942 4.59436 24.1057
1 2.44858 52.4217 53.9079
1 52.8006 45.759 4.62918
1 19.1583 1.5392 33.2206
1 44.1966 5.04289 12.2447
1 29.498 13.2953 44.4577
1 0.276805 23.1417 30.1331
1 6.10655 19.7961 35.9411
1 53.1175 0.494289 37.419
1 16.3178 27.6457 50.5143
1 9.74137 18.028 36.8389
1 52.5479 51.1364 20.4745
1 14.5165 1.73746 21.7505
1 18.5197 43.2132 32.6075
1 50.6162 53.4327 37.3568
1 49.1602 53.5962 37.5577
1 50.2289 22.0967 45.6595
1 9.39955 17.0225 6.85155
1 11.1602 18.0423 18.262
1 51.2608 9.76777 23.4257
1 49.9298 23.1152 41.2615
1 12.0234 32.0506 52.5342
1 10.4444 19.2036 28.2171
1 15.6368 14.4017 36.7218
1 14.4723 52.0866 10.526
1 53.9429 53.9256 39.6278
1 36.0445 37.2422 14.1597
1 3.01789 48.4632 0.963967
1 49.865 45.5578 6.75408
1 27.6999 18.4496 33.4026
1 14.2975 16.3518 9.96308
1 12.3496 17.7115 17.5324
1 28.29 5.56034 7.30705
1 5.33811 19.5007 38.4119
1 29.6085 7.69164 29.1199
1 27.9591 2.20055 48.0177
1 48.9547 5.38167 29.4704
1 24.9832 9.89488 9.08613
1 41.9663 21.7965 48.8807
1 5.04576 18.391 42.9322
1 46.0687 19.3077 54.0553
1 30.5383 11.9791 42.3439
1 47.4863 8.81068 12.0462
1 16.3032 11.8277 39.2188
1 1.98394 20.6406 44.2125
1 51.9179 53.0411 40.9557
1 6.42216 17.4349 10.7977
1 34.4923 18.9905 47.5126
1 14.7084 3.85414 46.4779
1 3.41782 6.23653 24.4179
1 9.22173 7.95216 50.392
1 25.1849 31.1388 39.7092
1 32.3646 9.69289 37.1433
1 7.87525 12.2717 45.9019
1 22.1869 26.3535 44.348
1 50.8016 24.0254 29.0507
1 6.77933 11.9117 8.13795
1 28.7478 14.9861 42.7839
1 35.4927 24.0375 32.2165
1 49.2389 43.0832 6.88656
1 24.1783 5.1838 0.315437
1 16.1166 15.2852 35.3264
1 24.0866 21.5703 41.5046
1 17.9135 3.21938 37.1486
1 2.65123 23.2525 33.7273
1 52.0178 15.1301 2.79401
1 13.1359 5.37358 0.979019
1 4.77218 54.1347 43.4257
1 7.5922 17.4334 40.9949
1 11.385 1.185 14.4558
1 1.09649 17.914 48.1877
1 50.7574 51.3945 44.6549
1 17.9938 39.721 52.518
1 16.8699 51.338 11.4144
1 26.2464 43.0741 2.66016
1 26.712 9.85317 30.5146
1 15.2481 4.60431 45.1914
1 27.0207 34.349 26.6601
1 36.8139 1.33068 48.4085
1 6.36122 16.7118 44.2188
1 14.653 8.29824 2.71557
1 38.9727 25.1793 38.321
1 6.364 3.10486 36.8164
1 24.0196 11.397 10.7914
1 25.6593 25.2403 36.0502
1 25.3679 34.0001 42.2573
1 4.13925 6.18186 0.968736
1 18.1232 5.56734 51.8515
1 17.9375 0.717165 24.0122
1 24.049 6.52174 2.41404
1 26.5005 37.7405 43.6461
1 8.82147 13.551 43.8833
1 8.38486 5.10726 24.2656
1 9.97594 5.68031 33.9519
1 15.8058 16.8838 33.7112
1 51.6005 50.1032 53.2531
1 20.6551 5.29337 51.1766
1 8.15687 14.1704 8.01352
1 48.8674 0.976111 35.7313
1 25.1392 26.5834 37.6821
1 12.0596 2.94452 50.7352
1 1.52048 52.4496 46.7171
1 45.4927 25.7784 36.6063
1 4.36136 0.55795 41.0923
1 12.97 16.6326 7.63146
1 24.6137 4.37747 52.4596
1 48.6725 25.0308 32.0371
1 3.86404 54.0265 42.2901
1 12.9283 3.19158 48.1647
1 3.72897 53.2267 47.7098
1 6.11117 44.69 0.831771
1 28.6785 4.05327 7.43263
1 19.1448 6.67332 0.023999
1 37.4173 0.379493 47.6378
1 39.5204 50.5848 51.6045
1 10.4033 1.58247 49.9034
1 6.23277 12.0985 9.5528
1 6.46703 18.114 40.308
1 53.6956 18.1631 14.7594
1 7.93835 10.5962 48.3258
1 0.154519 48.8712 2.01278
1 33.8032 9.76656 51.079
1 13.38 4.27608 52.9412
1 37.6958 49.7458 52.9991
1 6.39322 0.646942 45.642
1 44.1511 22.4005 48.4483
1 49.9008 14.0676 5.81288
1 45.9241 20.6036 51.4073
1 19.4351 11.7881 6.40205
1 5.30021 15.8959 46.1562
1 5.8501 11.7695 49.1313
1 9.36822 3.30996 1.44182
1 36.9937 52.019 51.6836
1 8.0216 4.53734 35.5179
1 16.1372 3.87657 42.6164
1 31.213 10.3671 46.5016
1 45.3007 25.492 38.0581
1 36.886 41.6784 11.3323
1 2.23023 18.5745 45.776
1 16.7239 7.07484 0.935013
1 22.9291 10.8149 7.13908
1 11.8691 10.5529 4.11514
1 6.51975 8.58752 50.9729
1 18.4764 17.0069 18.7003
1 26.0403 3.08636 41.9607
1 31.309 23.6504 35.2379
1 50.397 19.2968 52.5534
1 18.5175 4.75493 49.5204
1 0.431694 12.1685 2.55424
1 6.55293 3.84957 19.0317
1 4.36891 3.18207 34.8539
1 10.8707 11.278 4.73409
1 5.35616 54.1046 45.8954
1 45.9216 41.7941 8.27265
1 26.502 21.2791 33.3148
1 50.9827 51.6383 48.5088
1 10.6038 1.66383 52.4076
1 50.3182 3.3633 9.81787
1 4.15994 17.5739 45.0739
1 12.3673 13.164 5.34222
1 13.8326 0.949785 17.1037
1 7.73197 21.0508 6.30914
1 8.53873 16.6562 40.1357
1 29.4208 27.1754 24.8267
1 32.04 23.0168 40.2373
1 51.0954 12.4225 21.4048
1 42.7349 22.6199 47.9031
1 41.8605 9.42185 12.0742
1 15.8102 1.0512 22.0671
1 15.149 49.9256 8.98282
1 15.5224 43.0892 2.61825
1 16.9035 10.0067 41.4158
1 18.0944 7.97167 42.7467
1 9.15517 9.21509 4.27621
1 7.63764 7.08274 4.19178
1 8.96596 14.6866 43.0055
1 12.8736 4.2993 36.9538
1 27.7448 19.3458 32.1692
1 6.47357 18.3258 9.57014
1 2.30854 52.925 44.0152
1 8.42765 10.8397 6.13855
1 45.4688 15.86 16.9501
1 13.4846 17.5329 18.38
1 34.4317 22.9616 41.1826
1 47.6716 49.4088 53.9354
1 37.9125 52.6063 11.7513
1 26.9081 6.0085 5.04954
1 6.31544 16.0893 10.3846
1 2.48234 5.03158 13.6324
1 0.513247 23.757 38.395
1 17.262 12.6691 36.4897
1 5.19426 16.5319 44.991
1 14.7309 45.3438 3.39025
1 16.0756 16.3021 14.4447
1 19.2284 31.8872 46.6917
1 19.2357 8.9824 40.6561
1 42.2657 25.3422 34.7879
1 4.87649 13.7803 48.1449
1 8.09078 2.77735 1.96726
1 7.29178 15.7088 44.1437
1 17.2621 17.165 17.9898
1 5.69255 0.885363 6.89778
1 12.1396 7.29908 2.05852
1 22.8611 3.84841 46.9984
1 30.0196 53.0149 41.9464
1 3.35435 21.4075 37.755
1 16.4079 26.4292 49.6054
1 51.5844 20.7889 48.7397
1 36.0541 46.5754 48.3211
1 21.648 10.2787 5.08592
1 16.0867 13.7391 6.09365
1 36.3995 49.109 51.2439
1 8.57084 5.09951 2.7643
1 51.0089 43.6271 5.57754
1 8.52975 6.60917 3.1064
1 2.9033 12.1049 52.2677
1 52.2814 52.5004 6.60439
1 52.0183 13.5838 4.92448
1 48.3154 52.3184 44.0813
1 33.5028 13.2925 50.1953
1 26.0481 34.1211 37.5034
1 38.8153 50.7594 34.6947
1 21.4939 4.39982 40.896
1 9.73528 18.6864 20.1828
1 6.49567 20.658 8.69895
1 44.1181 36.4249 3.24035
1 5.64245 9.65462 8.35835
1 3.02247 21.6679 40.5035
1 36.1395 19.0074 49.9502
1 11.6727 17.5797 35.3892
1 7.17118 14.6335 45.2661
1 43.6629 23.3017 45.6961
1 6.35313 5.15226 4.08736
1 15.7513 12.8189 38.507
1 38.3542 22.3215 27.171
1 32.6114 0.549608 10.3897
1 45.8172 14.0928 23.3392
1 8.61107 3.77075 37.8288
1 31.1951 46.153 8.0194
1 51.6472 18.6141 52.6167
1 18.273 11.095 4.36183
1 23.5045 6.33667 39.5439
1 4.70943 19.8839 39.7522
1 5.11854 17.5772 15.779
1 24.2269 25.2548 39.385
1 37.3958 2.97929 43.4374
1 39.3668 22.9665 28.0195
1 25.645 40.8801 52.7865
1 10.9845 12.5069 5.56777
1 10.1148 8.85307 48.1944
1 5.30662 20.2442 37.1043
1 45.4825 29.8313 9.6029
1 51.7096 52.4826 42.185
1 34.1549 4.5865 45.1116
1 6.95342 12.4494 46.9827
1 30.6507 22.353 40.1399
1 16.1674 14.5761 7.18525
1 24.1198 48.5346 23.6698
1 4.75688 10.9462 51.1458
1 2.90817 21.2063 41.8004
1 8.80646 2.35741 45.2865
1 36.8012 29.7014 16.3499
1 28.4341 9.86141 19.6514
1 8.23369 15.9388 43.143
1 4.71617 44.5727 1.2268
1 48.3244 15.0755 23.2441
1 35.155 50.1133 8.23188
1 40.2381 53.7913 12.1979
1 32.5466 3.7319 12.5579
1 28.5529 47.4138 47.4892
1 24.803 3.916 48.9041
1 31.4562 5.4515 14.0614
1 11.2632 6.83573 49.3315
1 45.9294 1.10297 36.6123
1 7.01602 22.1324 6.1131
1 20.9125 38.9974 49.629
1 31.3878 4.58213 12.7349
1 43.3979 23.2497 28.441
1 18.9274 37.548 49.3385
1 35.4745 9.81635 20.7046
1 30.9363 53.1655 49.2437
1 27.2082 7.88766 12.4605
1 28.8201 1.70628 51.7352
1 18.7288 43.3207 3.8024
1 38.381 35.4206 10.3804
1 14.6562 17.3483 17.8431
1 53.7373 13.8762 1.36704
1 39.267 35.8755 9.21087
1 13.5178 3.33013 50.7116
1 35.7071 48.2456 46.641
1 50.5461 17.2904 1.70166
1 34.4673 52.0862 4.14721
1 36.8923 19.117 24.4753
1 48.8684 51.8159 46.5631
1 34.6944 22.1114 43.2924
1 28.387 1.69315 50.404
1 20.0917 44.8438 5.7019
1 14.7066 13.0507 4.51023
1 35.658 36.007 14.5985
1 25.2664 47.6864 23.5835
1 48.8825 47.9592 29.0318
1 40.6402 18.2181 2.90589
1 38.2889 24.6408 31.757
1 32.9035 11.988 21.097
1 15.5747 20.3772 52.4549
1 3.78274 11.9085 51.2821
1 20.6126 42.406 2.75799
1 28.7898 10.7475 25.8873
1 9.01072 28.0611 2.12682
1 36.27 8.75947 3.95127
1 36.4701 38.9465 12.4979
1 30.7016 12.9331 29.8954
1 25.0623 41.4518 0.722032
1 40.4872 17.8281 23.8207
1 6.99416 3.37936 2.35293
1 16.9803 11.9427 4.7501
1 22.9574 41.2272 53.4015
1 22.1416 43.9029 4.95463
1 30.8783 28.9399 23.1313
1 33.0075 51.871 5.94751
1 54.1281 51.7326 2.64426
1 31.0761 52.9319 47.5765
1 46.4099 22.2319 48.0368
1 52.8303 17.1479 54.1091
1 52.9648 19.3558 14.3666
1 18.3317 13.2295 7.98633
1 8.78673 39.1254 0.100366
1 5.53272 5.52141 28.1931
1 32.5083 51.6271 44.104
1 9.58575 4.65634 1.90069
1 6.9922 26.7576 3.77175
1 24.4472 48.8454 16.307
1 43.2232 25.1509 35.7881
1 32.3294 8.24955 18.4022
1 49.8166 46.8026 7.37324
1 1.81536 3.0068 34.7597
1 30.5613 0.698903 3.66459
1 27.5083 23.9645 30.212
1 32.89 46.5597 7.73925
1 19.1599 48.8967 9.95964
1 42.4028 50.129 12.1982
1 4.06514 9.70212 53.205
1 21.8974 31.0704 44.0063
1 1.68229 10.05 1.17376
1 35.5487 47.729 9.73282
1 29.1129 0.292084 46.9892
1 35.9231 7.36718 3.59683
1 0.137547 18.8698 21.4862
1 7.02865 42.236 1.0513
1 22.3803 35.7747 45.6151
1 18.1905 38.1458 50.4341
1 35.9612 50.269 9.52719
1 16.5133 39.2703 52.7628
1 1.22381 9.75769 3.50139
1 34.8021 25.6199 18.9294
1 28.0634 39.5106 21.7501
1 26.892 43.8253 3.58874
1 14.5191 7.41967 1.64241
1 10.366 33.1665 -0.233035
1 7.12724 5.82706 30.1621
1 2.95542 10.8545 53.1205
1 37.6233 1.65289 45.3502
1 30.0788 42.0463 17.0566
1 9.64366 19.5585 24.5596
1 5.27724 4.24569 6.10977
1 16.7907 3.92309 41.0958
1 35.8546 41.418 12.486
1 32.6762 20.4746 22.6358
1 46.4734 46.0823 33.4043
1 36.9356 22.7985 27.3352
1 51.4061 50.7196 50.9789
1 41.4526 19.8407 1.04957
1 1.12054 18.8065 46.7709
1 28.3096 42.8162 1.25419
1 50.9463 14.1928 4.66143
1 4.41918 3.83848 2.00252
1 36.4985 2.05137 9.6376
1 17.1418 16.65 31.5052
1 23.8939 24.1377 41.3597
1 20.1568 6.02151 53.3238
1 31.3901 36.4982 19.2177
1 7.62505 46.492 2.05658
1 51.343 5.75204 9.35617
1 8.91237 10.4936 47.345
1 44.2142 11.846 9.93128
1 4.09323 45.7794 1.32099
1 28.2922 45.138 5.69714
1 36.1816 40.2142 13.3036
1 27.6287 8.96125 17.5135
1 3.88542 53.498 50.1499
1 0.136736 46.6049 2.98437
1 22.639 42.3206 1.56382
1 29.5702 1.70304 4.34438
1 7.85061 40.1273 0.32694
1 32.7643 38.7365 15.8485
1 34.5071 9.4736 28.9625
1 52.4418 48.6977 27.8464
1 30.8738 2.17456 9.48087
1 49.6828 20.0949 51.6655
1 20.0909 42.3334 1.26911
1 29.4042 24.7481 25.9883
1 23.2976 14.0969 22.4245
1 26.9341 44.5034 5.87399
1 25.6181 40.1177 48.8546
1 28.2913 7.80753 13.5204
1 53.2505 52.1087 45.5849
1 12.2981 45.7573 2.96115
1 26.5291 46.4401 13.9994
1 26.2321 44.754 7.09803
1 27.297 17.7863 42.5102
1 8.10779 41.4581 0.952696
1 29.0046 43.8226 2.33312
1 28.6281 45.1118 7.91636
1 6.24865 19.7475 9.78959
1 26.58 20.3995 39.6013
1 29.5003 2.05271 5.85014
1 32.5676 29.481 20.8609
1 26.5297 33.4409 36.2176
1 18.812 16.2771 25.1744
1 27.2845 7.34247 11.1244
1 18.6433 44.7933 5.57313
1 42.8104 34.871 8.59948
1 27.1475 42.5112 1.79771
1 23.8522 32.4364 43.025
1 16.5082 44.3683 4.74521
1 3.75154 20.4054 21.8965
1 0.793787 47.5227 2.18661
1 4.75274 20.5743 23.866
1 51.1294 15.877 15.8802
1 26.5265 32.2573 33.7614
1 52.9448 13.4426 3.81721
1 32.2807 47.8564 2.70809
1 48.3776 48.6598 8.71392
1 33.7713 3.99891 12.9045
1 48.3221 13.5256 37.9688
1 11.038 32.2087 53.5906
1 40.0457 44.7493 36.5549
1 9.29543 19.075 5.42194
1 22.6697 44.8921 5.91745
1 14.5342 16.616 16.6022
1 37.792 23.7185 29.4336
1 20.8433 41.6107 0.171637
1 40.5601 35.0633 8.97199
1 33.832 50.463 48.8237
1 4.37654 19.2102 11.401
1 9.29899 31.3055 0.61402
1 13.4021 44.8404 3.02402
1 6.63907 39.2157 0.435531
1 38.2556 1.59235 27.0186
1 32.0417 43.5223 52.5647
1 32.2584 48.1655 4.30018
1 0.674922 49.1498 14.6675
1 51.9803 14.6451 15.8232
1 48.7312 1.68277 11.2982
1 32.1012 45.9899 1.04719
1 11.3063 17.3273 13.8263
1 51.424 47.6668 5.51938
1 10.8186 43.9608 1.69268
1 5.85315 4.79783 21.4107
1 32.8383 44.6834 10.4587
1 8.61743 18.3143 6.4974
1 32.6616 42.567 13.3147
1 9.04346 23.5352 3.06672
1 17.9102 44.3514 4.28173
1 45.1363 20.4733 54.0907
1 24.1225 43.7828 3.642
1 22.6674 9.38313 4.71172
1 31.1469 53.131 51.9171
1 15.1474 21.6798 52.2703
1 35.1245 7.52023 19.7957
1 48.7763 15.0544 5.90465
1 22.1738 41.7263 0.222498
1 28.5403 29.1094 26.24
1 33.6371 49.2896 43.1097
1 31.1606 2.76873 10.6213
1 13.4099 43.692 1.96388
1 14.2476 34.8386 51.2877
1 25.0418 47.8586 11.9994
1 7.98788 9.68841 49.3585
1 20.6296 0.422152 29.2751
1 14.4717 42.8506 1.83985
1 39.4953 53.0835 47.6347
1 4.72496 35.7898 2.50707
1 34.1799 9.24349 30.2289
1 30.2756 29.4953 24.1614
1 20.534 48.2876 10.1436
1 8.56522 19.2072 22.1897
1 20.8779 44.0818 4.80131
1 8.12637 1.7549 44.1518
1 29.191 45.5478 6.70852
1 25.8443 24.7989 34.8293
1 44.2395 26.5048 13.0957
1 5.00475 29.1338 5.55718
1 5.44079 8.46694 51.9709
1 28.2211 44.1177 3.48573
1 10.2886 17.7357 12.8425
1 18.1738 41.4774 0.227217
1 17.9832 23.9318 48.8558
1 21.3896 35.4282 46.6466
1 15.4248 24.8207 51.2091
1 26.2227 36.4723 36.642
1 16.834 20.1054 51.9976
1 5.81059 10.6988 50.1341
1 8.29352 22.6226 4.0378
1 27.3675 37.2067 41.4362
1 13.7868 37.3031 51.7596
1 15.4046 44.1632 3.62899
1 7.4277 0.424496 50.4518
1 31.1091 54.3166 1.48354
1 20.4168 0.792025 27.8107
1 15.8929 38.2376 51.8583
1 8.30561 24.8007 2.76861
1 1.79415 11.3333 -0.0985329
1 45.0618 0.269471 38.9901
1 20.1049 40.8366 53.3499
1 24.1814 45.0328 5.78127
1 47.5845 48.6079 29.0486
1 28.9803 41.7997 50.6275
1 1.81189 8.41358 3.30666
1 21.9197 42.6025 2.69841
1 29.2438 1.62391 0.332693
1 1.66647 8.3962 16.4862
1 14.0688 16.5395 11.2514
1 35.662 52.4887 8.01461
1 22.0913 50.9621 18.0066
1 14.6454 38.0727 52.4584
1 3.89073 30.2707 5.0749
1 3.97265 25.7343 7.59444
1 15.5242 39.7595 53.7862
1 32.7342 6.48152 15.6412
1 24.8954 42.9213 2.55688
1 47.9312 13.6514 7.87162
1 14.3872 28.5279 51.9955
1 44.5804 1.5261 36.8131
1 20.5932 45.8557 6.8622
1 26.377 30.1863 34.693
1 5.77557 2.53085 10.3309
1 43.5247 51.7428 27.6824
1 21.0933 47.407 8.8178
1 11.6794 18.9044 2.75044
1 9.05957 37.9025 53.9461
1 0.585992 24.5615 10.6423
1 21.2807 37.3303 48.2293
1 35.3837 1.66844 6.77602
1 5.11704 17.7427 17.2473
1 2.74909 8.10993 2.31222
1 33.7764 36.4288 16.1988
1 24.0115 42.1783 1.58334
1 27.1705 4.71411 2.78803
1 30.7507 45.3475 2.91612
1 42.1796 1.0865 12.1889
1 9.34737 14.859 8.15146
1 30.6033 45.9023 6.64499
1 34.6825 51.2606 7.60127
1 9.28142 6.05318 29.3514
1 48.8266 27.2182 36.9064
1 6.43371 37.9119 0.0301344
1 33.6736 5.97126 45.2412
1 22.3393 46.8267 9.23243
1 24.6259 25.595 49.1463
1 28.7469 15.5419 36.8127
1 0.409075 3.30732 31.6279
1 21.9401 52.338 24.3445
1 6.22163 1.43547 39.5209
1 46.3533 46.4344 8.63987
1 51.7408 3.7656 7.9546
1 23.2834 26.5384 41.4095
1 28.9811 41.708 18.0237
1 2.71493 19.1895 44.611
1 25.6377 45.8676 19.1057
1 47.8641 28.0011 36.3188
1 13.7537 4.1636 38.133
1 22.1315 33.204 44.7107
1 26.0668 44.9897 24.5141
1 46.2816 36.1701 7.73574
1 21.366 51.3249 21.9841
1 20.0446 51.3767 16.5186
1 48.02 44.9952 7.70601
1 2.54108 34.4081 3.5842
1 52.6177 38.5768 4.23539
1 26.6431 30.377 29.871
1 22.5394 49.6407 20.049
1 26.3545 41.673 26.8878
1 52.3995 50.0712 0.191677
1 28.9672 13.4796 33.2022
1 13.5155 18.1245 19.7896
1 18.9628 29.5588 46.4689
1 15.1831 16.0236 12.0459
1 33.1796 12.5977 25.3835
1 39.0249 52.7253 31.8224
1 8.64774 5.46633 52.535
1 26.9298 45.4772 15.0723
1 15.8362 5.61708 52.6433
1 4.24831 4.53516 32.7272
1 1.62998 33.8514 4.60994
1 33.2375 11.7843 26.5305
1 26.0517 43.3882 24.8122
1 16.217 45.3407 5.75073
1 27.894 30.9381 27.6449
1 13.0333 41.0918 0.378828
1 45.0914 35.2591 7.9663
1 30.5548 9.89795 21.7657
1 31.9701 50.4283 39.62
1 32.7966 21.5206 21.5453
1 1.62257 5.96514 25.9226
1 26.9769 46.3658 12.3858
1 6.11127 27.3032 4.68121
1 28.8932 41.7683 49.1844
1 25.1729 12.9805 15.417
1 20.1771 27.2194 45.3801
1 50.0179 34.0764 7.0873
1 29.6537 35.338 22.2975
1 45.5336 20.6892 27.1239
1 26.5547 37.2625 26.8696
1 34.1407 2.47553 30.6762
1 44.0924 17.9165 24.8734
1 50.749 13.733 20.6999
1 24.4208 10.8935 32.1707
1 26.5218 41.8063 0.653856
1 50.8602 25.305 32.975
1 25.7575 45.9315 28.091
1 42.4137 24.6636 31.0411
1 27.8919 41.9634 52.8425
1 27.5199 40.5911 22.5203
1 28.2762 45.2998 12.5719
1 23.2443 25.3501 42.0881
1 3.86189 21.5853 35.211
1 13.4162 8.58883 45.4601
1 24.3595 24.1431 39.9981
1 29.3592 22.3689 26.7758
1 47.3178 38.3427 7.59412
1 25.684 47.0222 16.9022
1 4.496 53.8868 44.6934
1 24.0205 13.4011 27.5047
1 28.6419 35.72 23.4335
1 19.2957 2.80345 36.8645
1 7.47604 2.13787 14.1666
1 22.8843 27.8191 42.3008
1 25.5577 39.3345 28.0974
1 47.1984 28.0445 9.98056
1 27.322 9.60541 18.7697
1 16.9998 4.41388 43.5755
1 49.0723 14.1322 22.557
1 30.8467 14.243 46.377
1 13.6887 14.9121 32.2487
1 12.2719 18.6223 32.9065
1 52.8724 23.9956 12.496
1 42.2963 47.9515 11.1277
1 49.4017 24.3439 13.2154
1 51.3924 9.06712 24.6584
1 20.4869 36.1108 47.7961
1 16.7208 37.7138 50.8116
1 26.68 44.5558 17.3779
1 34.3816 51.1269 6.1453
1 37.0037 21.0499 19.4649
1 20.5981 32.0529 46.1249
1 24.3578 13.5846 24.7021
1 42.5732 16.1338 23.7733
1 51.0767 36.0284 6.08499
1 19.8771 53.944 24.1167
1 24.6591 36.1699 44.2473
1 22.0794 45.722 6.87386
1 43.7964 35.8082 8.07389
1 50.9097 37.2188 5.53116
1 3.43888 37.9571 2.78856
1 28.1835 42.7718 18.3349
1 22.4234 52.3638 25.8378
1 32.2642 53.0344 6.73618
1 6.08356 19.1248 19.2364
1 15.0352 23.7837 51.7089
1 52.6671 42.0636 4.80327
1 34.3224 50.1485 45.2787
1 44.8265 24.1544 14.4814
1 26.0228 46.3045 9.98329
1 22.8913 51.1845 26.2404
1 31.8497 32.2449 21.3463
1 27.893 44.346 14.9173
1 50.4754 30.2134 8.09571
1 26.2888 38.6277 27.002
1 49.1286 8.92677 24.8766
1 46.9736 44.1382 8.07243
1 10.1347 17.2262 11.6686
1 21.5458 3.97601 39.4584
1 5.60496 2.86033 2.44222
1 28.4154 2.46354 53.8763
1 52.2961 27.9354 8.85557
1 4.12635 5.35204 28.8527
1 33.098 48.8355 1.98539
1 13.3621 0.133708 13.4989
1 28.3296 15.292 34.3578
1 38.2816 30.1469 14.3277
1 30.2869 11.6023 34.4707
1 23.378 36.683 46.1709
1 2.80007 26.158 8.20196
1 26.4692 29.5401 33.4598
1 25.7693 36.4682 43.6162
1 30.9203 53.5565 5.90979
1 15.8764 1.94953 24.3428
1 26.1265 23.1713 36.9511
1 25.4051 46.4509 22.5659
1 20.8315 9.39866 36.4351
1 21.2105 14.0442 31.8847
1 40.6877 50.9091 50.6836
1 0.513029 32.1598 6.15487
1 44.5082 31.8619 9.5046
1 26.7933 45.0268 18.7723
1 22.938 46.2505 7.97172
1 12.1049 9.00089 46.3391
1 8.93415 4.55465 36.5483
1 28.0489 34.8336 24.3334
1 38.5928 20.3355 50.2645
1 28.3156 20.095 42.3728
1 44.9517 14.6129 17.863
1 52.3271 37.4219 4.95586
1 5.69625 41.7172 1.53319
1 0.347205 8.16009 22.9188
1 39.4836 0.371488 45.6682
1 31.1344 11.7523 30.7262
1 27.2118 25.3593 30.3622
1 12.7061 26.9624 52.5406
1 33.6021 45.424 52.7325
1 47.5972 33.9523 7.75805
1 23.148 14.378 25.3679
1 39.4295 33.1361 10.3235
1 34.3105 10.7929 26.8009
1 24.8771 13.6126 18.9436
1 35.8508 23.9173 37.1616
1 22.184 40.7957 52.2955
1 8.83527 47.8397 3.41321
1 37.6739 27.2102 16.967
1 48.3106 51.5319 26.5625
1 25.7821 41.1173 32.0145
1 30.0336 1.16717 36.9495
1 7.53698 18.0163 8.75513
1 46.7374 47.3992 31.3616
1 33.2313 33.0403 19.56
1 28.1642 10.1713 21
1 27.1673 36.7232 25.5568
1 34.2624 28.4303 19.2879
1 49.2032 3.4471 31.0291
1 36.0975 4.7551 23.8632
1 27.6401 43.4205 17.1902
1 51.2217 1.45967 8.35922
1 34.2203 46.2342 53.7009
1 30.5445 38.4984 50.9234
1 1.12436 25.626 9.94723
1 23.9152 49.108 14.0791
1 29.316 40.2872 18.308
1 10.1072 6.22384 32.3356
1 19.4587 13.5738 10.2494
1 22.6997 37.3397 47.6181
1 46.0616 37.5806 7.55392
1 29.6717 38.2063 20.2339
1 37.859 9.91159 20.1787
1 43.2461 25.9267 14.2189
1 53.7105 20.2911 13.5149
1 23.5467 49.6316 15.4164
1 26.2592 42.6552 22.3606
1 27.6823 37.8726 40.1612
1 43.6972 37.2827 7.98525
1 51.452 32.1825 7.28653
1 48.909 33.3469 7.69168
1 25.642 45.1744 23.1093
1 37.785 40.423 10.9977
1 47.6973 53.3475 11.3939
1 27.7023 40.3058 39.2282
1 7.45196 19.845 21.2846
1 22.8459 22.8167 43.2036
1 30.3431 43.1373 14.7459
1 17.7927 46.5808 7.40699
1 27.2746 38.925 24.317
1 40.148 52.0734 31.1037
1 29.6107 41.5493 40.7218
1 2.53156 19.7122 21.2728
1 4.23672 4.75237 18.1177
1 44.2723 32.9883 8.77071
1 35.4215 5.11997 52.557
1 32.4056 34.1655 19.3763
1 30.5492 39.7141 17.562
1 22.8173 13.9632 29.4726
1 18.7032 16.2282 26.6464
1 29.9255 43.1998 16.1317
1 50.0912 35.4912 6.99631
1 29.311 45.5057 9.09508
1 10.0698 27.0501 2.13517
1 43.7749 21.0981 52.1811
1 19.6057 6.00738 51.8437
1 22.2474 53.3473 30.6718
1 11.251 53.1034 10.1313
1 39.9788 41.9703 10.1131
1 28.1233 15.5489 41.6012
1 5.96551 53.9423 48.1543
1 20.0844 8.80203 39.4397
1 30.7804 11.296 33.2327
1 15.4733 46.5636 5.6115
1 43.6023 24.8361 14.8973
1 37.5126 12.4288 19.2134
1 24.098 49.1847 24.8707
1 2.99926 5.94534 25.7474
1 12.1166 18.395 22.1126
1 30.354 44.4377 11.1934
1 51.088 22.6201 13.1818
1 35.6939 16.7702 51.667
1 43.8892 15.9131 23.3555
1 4.92301 5.7421 8.23944
1 20.3605 29.7491 45.7419
1 39.7408 32.0942 11.2536
1 25.0139 46.8651 21.3398
1 38.6712 40.6716 10.0575
1 27.5348 45.0107 34.9151
1 16.6478 41.7812 0.697908
1 29.0095 40.7197 19.8806
1 26.948 19.108 34.485
1 28.1675 40.2649 44.3167
1 28.6122 47.3338 35.8298
1 7.99027 0.757176 49.0677
1 51.165 4.38253 9.11762
1 26.7827 40.7729 25.9195
1 0.552036 9.08276 5.82446
1 20.4781 16.4672 23.1847
1 1.53431 51.8917 52.8517
1 1.42551 17.2941 18.1551
1 16.8774 1.91791 28.4911
1 24.4998 48.2394 26.0408
1 3.40011 6.00627 20.1017
1 49.7302 4.36396 30.2078
1 35.4348 19.9996 47.9352
1 36.8699 54.1801 31.5174
1 18.35 30.6605 47.1553
1 32.3089 42.757 48.3868
1 25.2114 8.21767 34.7598
1 49.097 44.425 7.20897
1 39.6362 53.236 29.1002
1 45.1588 5.49733 28.8921
1 40.3799 6.54273 28.9568
1 16.3861 36.2669 50.455
1 27.1832 2.24518 41.8847
1 25.873 33.6635 39.8126
1 32.0734 8.22864 45.0941
1 25.8067 33.3557 38.4783
1 50.2727 31.4551 7.65602
1 36.0695 49.9902 50.0552
1 3.94726 5.44835 26.6226
1 35.1288 7.33913 16.9821
1 25.5413 33.0764 41.0667
1 51.8451 1.98286 34.28
1 22.7667 34.5302 44.8122
1 26.6902 36.1213 38.8512
1 13.1886 11.6823 42.2607
1 11.0181 17.6053 36.8157
1 30.6992 11.7872 46.3862
1 26.8246 18.6085 35.7696
1 13.9044 18.3336 29.3119
1 30.8916 11.56 43.6133
1 12.1727 10.7254 44.0905
1 9.90861 18.9151 32.4401
1 37.3409 5.66136 34.8001
1 0.0313864 1.28506 37.6371
1 21.0998 15.6713 25.4016
1 17.2262 43.167 34.5186
1 9.43101 16.0484 41.2304
1 19.72 0.609297 30.6408
1 28.2216 22.4777 39.7027
1 28.2596 2.80547 37.133
1 0.482585 35.7651 4.9579
1 35.3425 45.5437 49.1739
1 38.4846 53.9993 29.9918
1 50.102 50.0524 53.6291
1 52.6012 43.4086 5.20169
1 6.7426 1.03744 44.4287
1 33.9271 15.6019 50.0851
1 13.7333 22.3631 52.9313
1 51.9977 48.6366 4.86784
1 26.7954 29.7336 31.0489
1 30.8907 9.18778 20.4372
1 28.6844 15.8562 43.9209
1 23.0368 12.7112 31.8719
1 16.3551 13.4836 37.4789
1 18.3184 8.57506 1.55423
1 26.4624 11.6191 22.6371
1 32.7291 47.0949 41.1121
1 26.5035 22.8335 33.2655
1 39.268 1.93952 26.0236
1 25.7385 10.144 31.7618
1 43.6366 52.7445 12.5176
1 20.1876 4.77106 41.499
1 53.6926 9.18181 6.93147
1 6.01317 53.0655 52.2831
1 37.3926 23.0933 43.248
1 53.2093 8.16244 7.69657
1 39.1513 23.9737 28.9996
1 1.56323 13.8173 53.7011
1 36.8066 47.6231 50.7654
1 28.5733 14.6742 40.5293
1 16.1661 31.2361 50.1231
1 8.1099 0.689755 10.9044
1 10.7015 2.63255 47.2553
1 14.6154 32.3561 51.4259
1 32.6707 8.60918 47.5527
1 14.6901 9.86159 43.6235
1 26.8541 34.9199 27.9993
1 26.9396 39.9116 46.6462
1 19.8216 51.9821 18.9314
1 12.3684 13.9917 41.1089
1 1.4235 48.2476 15.1914
1 19.259 52.5437 20.1519
1 51.729 10.7973 7.79654
1 19.3353 15.4249 31.8089
1 16.1638 17.1103 29.4854
1 26.4149 42.4449 23.7958
1 34.5478 51.4219 35.656
1 22.112 15.0321 24.5406
1 2.44438 6.88261 23.6339
1 38.873 2.54968 41.3783
1 40.9395 22.754 27.855
1 39.9197 25.8075 35.9018
1 25.0024 47.3021 28.2478
1 29.698 0.0857326 39.2661
1 5.92988 5.64752 31.0855
1 30.4319 9.43154 24.6526
1 28.1637 46.325 34.8851
1 36.3665 23.8107 39.6962
1 28.8722 20.9471 41.2891
1 38.7827 23.3703 43.0489
1 39.4587 43.1685 10.0064
1 38.46 18.8327 19.0197
1 40.2649 46.5358 10.7954
1 26.4423 32.6706 28.8869
1 45.3872 49.4375 30.4466
1 15.522 10.7279 3.55529
1 3.39568 19.676 12.3176
1 30.599 41.2774 44.3658
1 13.1669 12.8051 41.2579
1 27.5941 8.62089 30.3593
1 35.1998 6.47053 52.5007
1 22.3915 53.5943 33.1748
1 14.8255 29.7594 51.6127
1 5.75089 54.1913 0.185855
1 16.5895 5.16927 44.7999
1 28.672 41.4054 39.5387
1 26.7543 35.9482 41.2454
1 30.708 20.5301 43.4606
1 30.2368 12.1356 44.7532
1 35.0239 53.7158 32.9552
1 21.5265 50.6615 20.6228
1 30.7571 37.87 19.2153
1 22.7242 32.1929 43.9611
1 27.6166 26.336 29.3105
1 48.6512 26.2666 10.7796
1 4.79707 5.78524 23.7653
1 27.4431 17.606 40.1886
1 6.38063 17.6439 14.9299
1 30.2034 21.396 41.2078
1 43.6484 45.8192 9.58373
1 4.2185 15.9187 47.29
1 53.0667 19.0574 22.2762
1 44.6495 52.1491 26.9757
1 11.0389 3.27217 46.0361
1 26.4595 36.307 28.0326
1 9.96771 14.7954 41.9959
1 43.7194 22.2296 27.7154
1 51.7332 6.30391 16.883
1 46.2162 47.3692 32.6115
1 11.9465 19.0884 26.0265
1 21.4043 53.4273 29.6078
1 36.3248 11.8872 19.6071
1 43.1821 31.2253 10.2336
1 52.6495 18.8759 51.6671
1 48.6168 15.9778 4.75484
1 17.1794 31.7349 48.9604
1 17.2302 42.5786 33.1692
1 7.62851 17.4327 12.8706
1 2.87794 4.6353 17.2842
1 7.70348 32.7414 1.40287
1 25.5323 12.8953 25.444
1 37.5219 35.1568 12.8473
1 15.7628 4.29353 47.6183
1 26.3112 35.558 37.5556
1 27.7899 41.1133 48.5586
1 25.1547 45.5776 20.5428
1 11.8861 14.699 39.8165
1 32.2012 9.13622 20.1067
1 30.1461 54.0031 49.9068
1 2.25768 21.5038 26.5517
1 16.0669 3.84723 38.7593
1 20.0937 2.96348 37.8459
1 46.6398 12.3747 9.62334
1 14.6058 11.1403 42.7917
1 48.5746 44.9853 32.6876
1 8.34401 19.984 26.5373
1 22.5851 5.35745 41.548
1 0.791073 29.8156 7.08936
1 11.1358 13.7944 42.0749
1 5.31715 0.130176 4.32011
1 23.3141 20.259 43.1893
1 26.9417 1.88696 44.319
1 25.8424 19.9368 41.6157
1 27.3066 17.0753 37.9852
1 50.0859 52.9898 23.4147
1 13.4812 21.5477 -0.12842
1 23.5541 52.9071 33.1176
1 31.1217 12.9729 46.9756
1 14.552 14.9498 37.411
1 6.8589 9.76168 50.3344
1 52.4301 23.8205 28.8596
1 23.3719 14.0151 21.1092
1 26.0435 5.97248 36.0505
1 42.4025 2.2893 36.122
1 39.8086 26.7284 15.4922
1 13.0144 17.4592 34.635
1 17.4401 30.5785 48.3284
1 27.299 16.9543 41.3555
1 48.5317 53.1969 10.2877
1 2.94227 3.79186 32.7814
1 21.4556 48.9476 11.0482
1 28.4228 15.1613 39.3385
1 27.5547 35.3878 25.3959
1 14.8851 17.6128 31.5507
1 21.0547 31.0116 45.5009
1 33.8756 29.7056 19.1513
1 29.1171 6.28906 32.7606
1 53.2369 27.2388 9.62458
1 53.7867 17.8638 51.647
1 20.5919 54.1405 26.7149
1 36.2941 2.61726 45.5313
1 0.553368 34.4327 5.15292
1 16.4 2.09364 25.6536
1 28.3927 21.2204 29.9725
1 27.977 11.0958 28.4701
1 8.00652 35.6803 0.0227977
1 26.7262 46.9476 32.7184
1 53.3228 11.4807 6.10427
1 35.0303 4.34233 46.6228
1 1.71347 19.1233 13.9008
1 30.152 34.0408 22.3119
1 25.8525 43.9243 22.1974
1 45.4032 44.1986 34.5552
1 26.0473 9.13939 32.7864
1 35.783 3.98553 6.41943
1 20.5222 49.7649 11.9715
1 25.5678 37.0169 31.7049
1 16.1249 0.161908 18.4572
1 22.4794 39.247 50.1095
1 11.0927 5.74636 31.4092
1 32.9789 44.1703 42.1032
1 15.6617 22.6708 51.4298
1 28.0659 40.6882 47.2918
1 26.0746 35.3779 42.4504
1 27.4621 1.426 43.0534
1 30.1757 45.5002 4.21961
1 30.674 42.7059 40.8113
1 33.7909 41.6583 13.2239
1 13.4435 7.52305 47.6495
1 35.0826 47.0613 52.7433
1 8.77094 30.2132 1.26799
1 4.59714 9.77233 51.945
1 39.8994 7.96633 26.7933
1 6.88069 5.36486 53.9307
1 9.03789 11.4085 46.0937
1 40.4323 19.0962 24.4486
1 4.10614 14.8464 48.1097
1 33.3656 46.873 42.3449
1 35.605 5.81748 36.7269
1 36.3167 53.9214 10.0038
1 1.05612 7.31117 24.019
1 21.1636 51.3465 19.124
1 38.942 8.18301 10.103
1 6.06107 6.55919 6.32347
1 45.6052 11.9988 10.5108
1 53.325 23.9445 30.0622
1 48.1698 9.84775 17.9873
1 10.0266 11.445 45.1344
1 33.3615 43.9794 46.1551
1 26.9585 23.9138 32.4123
1 7.45221 17.0463 42.3561
1 20.8867 33.247 45.3871
1 33.9515 44.991 51.284
1 2.4432 14.4756 51.6818
1 42.4161 16.4409 5.72836
1 18.5782 49.7739 10.765
1 29.09 0.777326 49.6454
1 22.885 40.2491 51.1965
1 54.0438 17.1765 52.9688
1 32.0065 45.9391 40.2433
1 48.2379 19.0978 54.1058
1 3.0453 16.7048 47.1743
1 50.5187 1.7536 34.4158
1 35.9114 2.03291 50.9964
1 2.64319 1.55811 37.9649
1 9.55104 35.5015 0.0278452
1 6.16246 54.2 51.0272
1 10.2228 18.7363 30.899
1 7.59481 7.57004 50.8448
1 25.9716 21.0409 38.5094
1 27.6853 1.88332 45.5639
1 25.9715 39.5648 47.5513
1 36.0722 4.54448 37.7152
1 3.96573 14.9236 13.1695
1 33.4134 45.4486 42.7863
1 53.0975 49.9928 21.0336
1 24.1555 40.6575 50.6723
1 25.1735 12.0389 22.5135
1 33.442 53.6704 10.0805
1 37.2715 10.5287 24.6931
1 33.9819 50.7706 46.4087
1 29.0327 0.1673 44.4872
1 18.5056 36.1503 48.912
1 18.7126 39.1848 51.3745
1 36.9742 18.738 51.0602
1 52.5004 31.2319 7.07444
1 51.2787 2.55166 18.6427
1 26.3998 35.1791 40.0533
1 5.71007 28.7232 4.47859
1 33.3381 43.8574 50.6752
1 25.9212 20.4147 37.0907
1 5.52112 3.85737 34.6454
1 47.4285 17.176 16.2541
1 10.9595 7.77247 48.1786
1 49.5875 18.6283 53.6836
1 6.3629 1.6256 9.3207
1 15.0349 16.3593 13.4077
1 0.227965 11.0005 18.9463
1 23.4009 39.37 48.9909
1 24.4785 39.9979 49.5453
1 52.2714 3.62671 30.6932
1 34.4937 48.8716 7.9063
1 36.5959 47.5735 49.2331
1 20.2121 4.67169 49.8165
1 32.3299 16.7019 22.7541
1 49.4193 51.0466 8.82627
1 25.0721 38.2882 45.5872
1 29.3083 43.6372 38.1415
1 3.20841 15.2974 49.5064
1 6.89952 52.2227 4.33778
1 12.6487 4.53561 33.1855
1 30.5119 41.4518 47.2194
1 27.945 37.6037 24.5254
1 32.6871 13.3796 48.777
1 34.8666 39.7804 14.2214
1 25.4421 43.9067 27.1695
1 23.9451 27.7179 39.5336
1 29.3751 40.6311 46.6658
1 32.0701 23.1105 34.1445
1 2.37666 13.5131 52.6651
1 12.1895 11.8852 43.249
1 25.9639 42.8847 26.287
1 30.3646 8.81582 26.8184
1 14.6855 19.5427 53.462
1 38.7173 28.8937 15.0714
1 51.3312 52.1545 47.1347
1 40.1296 20.705 50.1348
1 33.0597 52.846 1.34051
1 6.10643 13.9441 47.2992
1 49.9125 14.7551 21.6212
1 0.32505 22.5768 25.7176
1 15.2753 4.03535 48.9116
1 41.3558 1.49011 40.3341
1 20.3346 37.7695 49.3575
1 2.61528 20.8506 11.6102
1 25.4906 41.189 51.3636
1 0.340091 17.6694 50.3829
1 52.2863 51.9907 44.5705
1 0.861083 16.1113 52.7331
1 39.2551 42.5465 36.0552
1 31.9308 53.4622 2.35467
1 30.4919 16.7746 45.7781
1 16.5074 47.4661 7.81702
1 48.1775 0.240046 36.8163
1 2.94377 14.16 50.5099
1 24.2259 34.7132 44.2209
1 19.7538 35.2974 48.3888
1 49.8225 10.7106 9.26941
1 24.4409 33.7595 43.0886
1 20.7655 40.4063 52.1127
1 4.1685 20.8619 36.6219
1 51.3516 54.3155 8.00268
1 34.7824 4.73191 42.3437
1 25.5142 29.9159 36.7364
1 47.3167 5.2511 29.4917
1 53.7026 22.1506 43.0883
1 3.11111 17.4781 46.0741
1 6.44697 1.08602 1.16093
1 39.4225 4.28993 35.4201
1 18.9549 41.7093 1.45585
1 51.0325 27.8463 9.71908
1 24.3736 39.0952 46.7223
1 28.1945 44.122 35.8641
1 26 38.8021 44.6893
1 34.6869 42.2122 12.4414
1 2.28245 25.2602 9.07513
1 47.2438 11.0017 17.9159
1 1.97694 0.538556 3.80926
1 38.3817 3.24896 37.7319
1 34.2206 8.775 52.0302
1 43.8914 51.2287 28.8976
1 27.0932 45.1371 8.2853
1 25.4208 8.17419 7.01982
1 29.8652 0.988768 52.3026
1 9.42382 16.4331 8.19259
1 36.8299 24.9912 18.1729
1 28.1628 40.5387 42.8491
1 8.02222 13.4168 44.9316
1 13.7496 33.4052 51.6351
1 53.1353 0.469935 6.34489
1 1.19832 49.8958 1.60722
1 37.445 4.25288 37.2509
1 47.1358 53.6298 40.8408
1 42.6886 1.25368 38.3057
1 38.4992 46.1815 37.2164
1 31.315 42.3529 42.1898
1 17.6476 3.80709 38.5588
1 8.73014 21.2772 4.07315
1 51.5702 21.4162 47.5087
1 23.5907 38.4442 47.814
1 0.0858603 22.4986 28.0115
1 26.4862 34.0427 29.0636
1 18.2578 25.4245 48.0984
1 24.976 29.6679 39.2876
1 30.1462 25.2131 23.6591
1 18.0314 1.83372 27.4404
1 12.0853 3.55425 39.5722
1 28.7926 2.8068 3.75601
1 8.16582 4.62395 53.6513
1 45.8065 45.893 34.7601
1 37.7511 32.6897 12.7518
1 31.4605 42.2712 44.8861
1 40.1519 25.533 37.4378
1 33.1651 46.972 0.316015
1 30.1434 42.2926 51.2518
1 6.3173 22.8851 7.39299
1 43.7809 2.26308 35.8924
1 26.9769 39.609 45.1796
1 43.1998 19.1128 3.27358
1 20.9204 11.9852 6.80671
1 35.5805 52.6177 0.532643
1 4.65448 12.8018 49.2119
1 50.4982 20.9034 49.4675
1 26.2408 12.4881 27.5688
1 12.3847 14.4762 6.12959
1 38.3069 5.84988 10.8189
1 46.8623 15.8459 16.4441
1 50.9092 52.9009 39.7877
1 28.6578 42.5805 -0.171148
1 23.1363 13.172 12.4316
1 33.8325 11.0812 51.6428
1 5.59643 52.1963 3.50697
1 9.30091 8.78106 49.4092
1 49.4174 49.7773 8.10479
1 47.1884 20.8311 52.1226
1 1.85556 52.2256 49.2287
1 45.7619 10.6433 11.4078
1 30.7957 46.3849 5.2581
1 30.1463 42.0475 48.5787
1 25.9866 22.4745 35.6411
1 34.5234 23.7899 34.8423
1 10.0022 12.8336 44.2348
1 44.1147 0.756311 37.8219
1 32.0674 53.2172 8.24096
1 36.1866 3.16759 44.0259
1 30.0439 43.1724 53.8374
1 25.3654 4.52808 0.936768
1 35.7399 22.2633 26.6023
1 25.8353 38.7071 29.2492
1 32.5592 52.3043 -0.0681028
1 35.0409 4.73866 48.9066
1 38.4409 4.44284 22.8735
1 20.1816 39.6734 50.7955
1 28.5564 42.3318 38.341
1 3.16483 3.03675 34.0631
1 40.4896 21.5494 48.9277
1 6.10811 0.603633 43.2599
1 24.5144 20.5343 42.231
1 40.1674 8.29761 20.2231
1 17.2596 35.4231 49.171
1 31.0848 43.8755 12.4729
1 24.4247 37.1808 45.2329
1 18.855 9.55083 2.49065
1 41.5072 48.8764 52.3971
1 26.7037 3.11452 51.9659
1 3.92455 13.5538 13.0049
1 16.7994 42.2143 2.48505
1 12.4245 36.6838 53.6157
1 33.7726 40.8234 14.355
1 37.217 48.6066 36.3426
1 26.0641 31.1471 37.3345
1 0.952671 22.525 29.0429
1 28.7767 1.12352 48.143
1 31.4852 42.4082 46.3208
1 44.8112 16.686 5.40289
1 53.0478 2.03762 6.4447
1 20.3192 46.8143 7.90517
1 34.4359 50.7676 51.4461
1 21.346 23.4257 44.8999
1 32.2809 44.8057 53.0512
1 19.8272 21.9384 46.3254
1 53.7195 19.6732 48.6546
1 36.448 11.3064 3.48554
1 11.8397 20.9793 1.78348
1 18.7021 40.8695 53.1831
1 13.2802 3.69979 46.8661
1 18.8347 25.5952 46.9413
1 25.4681 51.5239 32.3101
1 27.354 39.675 41.923
1 52.6737 21.5261 45.1755
1 32.2768 43.2247 51.33
1 22.7454 43.1671 3.85881
1 26.4542 9.23889 12.8091
1 41.4114 2.33637 12.4169
1 32.1395 18.0188 23.0572
1 25.1845 13.538 16.513
1 4.2659 3.78665 14.8907
1 11.4062 16.8297 37.9069
1 21.8995 11.0059 6.44346
1 37.1761 10.1544 5.76108
1 42.4321 14.3954 7.66762
1 37.1988 2.26542 11.0401
1 6.17219 20.8399 23.4807
1 8.40229 5.50819 34.3942
1 4.02658 53.9143 1.99062
1 36.2645 14.4208 19.913
1 52.2352 53.7585 6.96877
1 0.762749 11.8452 14.5795
1 32.6074 21.5475 42.2526
1 30.5111 7.3122 15.446
1 15.4873 53.4387 12.4684
1 11.2062 17.4794 15.28
1 45.9056 51.3592 46.9567
1 16.4624 17.295 26.5726
1 26.4769 21.1641 40.751
1 27.4691 17.1594 33.0112
1 28.9475 39.5899 20.558
1 4.9979 5.09509 1.34901
1 30.3273 11.4035 37.0739
1 52.1291 50.0131 5.42377
1 41.7374 27.6055 13.4274
1 9.08975 17.5848 13.661
1 43.2939 50.1747 51.1493
1 36.5978 14.6982 1.84248
1 40.9291 31.2699 11.2924
1 42.0052 6.06045 12.2282
1 23.2157 14.6174 14.9631
1 19.1737 9.59153 38.4612
1 11.9448 16.8728 4.11318
1 36.5266 5.70767 8.19206
1 38.6272 9.34259 9.15109
1 7.51067 20.3042 7.57309
1 27.8836 2.39251 52.5254
1 11.0152 18.5621 19.7154
1 33.163 9.54852 21.071
1 46.5871 0.827941 12.3374
1 35.5503 4.69815 2.68888
1 41.3507 15.8756 6.22884
1 8.61678 12.13 6.83337
1 10.6546 16.8619 4.73347
1 25.3308 24.4174 37.1291
1 24.7869 44.0695 4.96727
1 24.1995 13.4662 14.4733
1 47.8961 11.6934 9.70555
1 29.1315 8.61055 17.1067
1 29.4645 8.10495 15.7202
1 49.639 3.95958 10.9555
1 52.1719 2.3737 7.99072
1 20.2759 5.69108 42.5494
1 17.2425 16.9363 16.5962
1 52.1611 53.9423 20.8011
1 51.3995 49.6045 1.3887
1 46.7758 13.4365 8.73995
1 42.6443 27.9934 12.3971
1 29.5066 6.66938 30.2693
1 33.0678 24.9859 20.8523
1 17.5698 11.2597 38.5437
1 13.8184 3.71008 41.6631
1 26.0699 9.96464 11.536
1 49.6176 51.2408 48.9214
1 44.5351 48.1168 33.6866
1 21.2369 8.01811 39.4309
1 0.225833 6.48032 25.0006
1 51.5369 23.888 12.6198
1 39.0955 26.4894 16.6612
1 35.7242 51.372 53.8685
1 31.9364 24.1029 36.3694
1 47.7355 3.94493 12.5478
1 21.3772 49.7887 13.2303
1 29.4452 13.4933 35.7639
1 24.9776 48.2369 13.4197
1 7.27304 49.6671 4.36579
1 18.9024 4.53081 46.0479
1 35.7375 3.67438 49.2373
1 25.6456 9.17276 10.2538
1 24.0521 10.0275 6.70762
1 31.9811 10.8665 21.5761
1 31.2546 7.99213 17.5892
1 52.7282 17.0585 21.0881
1 30.9728 27.5884 22.8862
1 36.3316 12.4005 2.25924
1 11.7704 0.453328 11.9765
1 45.6081 23.9563 42.8982
1 38.7172 15.987 19.5667
1 13.0576 14.4103 31.0787
1 28.694 5.58811 9.66913
1 2.08967 51.9921 1.05076
1 47.1209 20.5807 26.7625
1 35.674 51.8806 5.47615
1 26.6527 3.35456 39.579
1 39.1798 3.30579 11.6351
1 47.1107 50.1183 51.4289
1 12.327 4.79881 34.6498
1 33.2099 10.0781 30.8458
1 28.3413 24.4092 27.9245
1 36.3527 12.3293 23.3737
1 30.9119 15.3681 26.0894
1 30.9726 35.7533 20.389
1 19.1119 0.437903 23.0008
1 30.0611 13.5813 38.0397
1 6.57107 10.5404 7.67186
1 14.2544 38.8791 53.6642
1 48.3788 51.3952 47.8073
1 39.2245 19.3252 52.6522
1 3.22227 5.25851 27.8161
1 25.1631 22.0804 40.6851
1 11.4757 16.7828 11.0673
1 38.7872 11.7936 23.289
1 36.5512 30.8336 15.6431
1 23.8794 3.7179 45.7154
1 34.8124 48.772 45.7049
1 34.1153 23.3362 32.6453
1 27.4095 42.638 19.3422
1 -0.370152 53.4232 4.65397
1 5.79068 15.1815 11.4989
1 39.1996 25.1401 17.2453
1 29.973 21.923 25.729
1 31.6894 7.57766 16.1495
1 41.4909 10.3417 19.3247
1 41.214 37.0692 8.20372
1 35.7796 44.0968 10.8296
1 27.8037 41.5804 20.1703
1 12.1796 35.8176 52.402
1 0.168245 51.632 52.9549
1 37.7699 10.2897 6.94863
1 20.9545 26.0676 44.9587
1 1.49354 16.7585 15.5138
1 35.1059 4.48823 51.4088
1 32.9406 3.95612 29.279
1 2.79309 11.328 13.0952
1 32.0419 9.61322 42.5215
1 2.09601 29.3954 6.42754
1 15.608 10.901 41.7419
1 20.9547 15.9625 16.1492
1 37.8624 9.25595 7.95791
1 38.1887 1.96275 44.0152
1 37.5439 53.0899 49.3964
1 14.0898 10.4919 3.2238
1 38.7706 14.9812 5.62117
1 49.1108 51.6963 25.4018
1 30.2836 14.973 28.4302
1 41.1992 39.9119 9.34042
1 44.4575 51.6501 47.2985
1 32.1205 25.7322 21.589
1 38.7832 17.8408 1.56299
1 18.0006 13.9572 35.4802
1 48.8307 16.6368 23.4986
1 41.3046 7.12135 12.8428
1 39.8654 37.1431 9.02557
1 7.3324 19.3099 19.9079
1 23.2381 4.07512 44.319
1 36.5687 1.14988 49.885
1 24.7327 31.6823 40.9998
1 18.0399 10.0406 39.1382
1 39.1075 7.71749 20.6754
1 30.2896 53.2902 44.214
1 31.6792 42.4821 14.5277
1 51.5017 22.3574 44.8252
1 36.9853 54.0485 50.3923
1 29.8669 12.9945 39.7398
1 48.5697 49.0659 0.595106
1 20.8402 50.3166 14.317
1 42.4756 19.5449 25.4258
1 51.9971 8.04254 8.36868
1 37.5375 13.6864 4.00289
1 6.81758 20.0661 30.9164
1 43.807 14.8634 6.96081
1 33.8212 14.2608 20.8115
1 36.2196 6.25799 35.4617
1 42.2718 17.6704 4.93516
1 16.6304 6.56109 44.2645
1 10.5187 21.5188 2.47506
1 8.71831 18.102 15.1145
1 44.8332 24.3677 31.8827
1 44.3867 24.8076 33.2763
1 35.0782 13.7839 20.2716
1 0.74755 5.42544 5.80013
1 38.0527 42.6577 36.5277
1 46.7567 0.248442 37.3465
1 30.1471 26.643 23.7454
1 36.912 17.3409 51.7695
1 43.1528 0.130893 40.527
1 30.9469 8.57641 25.5387
1 12.4871 15.4183 31.6204
1 41.3443 30.197 12.2084
1 30.4329 15.7564 27.3572
1 52.1172 49.3573 26.7166
1 34.0298 22.8039 19.7509
1 8.53484 1.81711 46.6563
1 22.6177 6.36009 40.5795
1 26.3179 19.2094 37.1431
1 10.7208 50.3934 7.1592
1 7.71761 17.6335 11.6528
1 26.1888 32.0636 36.0012
1 1.62516 15.7714 51.7227
1 18.0063 4.74659 41.5155
1 15.8209 17.1986 18.629
1 36.7604 4.38756 8.95919
1 13.4268 4.18291 39.5244
1 46.6904 18.3415 15.8664
1 40.1646 25.3079 33.8104
1 33.1284 52.8914 8.93771
1 21.428 5.99203 53.7741
1 25.7448 11.6125 15.2399
1 36.7823 13.5977 22.9406
1 35.1827 6.8142 53.8299
1 23.3258 15.5237 16.2144
1 17.9266 1.94619 26.1509
1 43.0776 49.897 32.1349
1 50.2954 51.8028 46.2814
1 36.5055 10.3309 19.9059
1 35.3586 1.03387 2.0354
1 32.8379 14.8408 24.3695
1 29.6538 13.5274 30.5883
1 30.3211 18.1151 45.1685
1 21.4812 7.30778 40.6576
1 40.5199 43.9867 10.7285
1 23.0908 11.4785 8.43968
1 53.2786 50.8198 3.40127
1 54.0529 3.07196 6.07023
1 52.7931 51.1503 4.7893
1 9.76198 29.2093 1.66742
1 1.56196 10.0768 49.5673
1 31.0455 16.3263 24.9944
1 17.6855 16.883 24.3932
1 43.3318 13.5461 23.507
1 3.12433 53.2202 49.038
1 14.6051 3.643 42.9237
1 5.11151 53.7833 47.1399
1 0.438452 10.0006 50.5213
1 20.3999 34.4036 46.2305
1 22.0391 16.0215 18.2305
1 35.9521 9.93796 3.09694
1 2.34678 2.88158 3.26792
1 24.9021 46.7157 18.1537
1 16.1457 17.4192 30.889
1 22.9802 15.2601 18.9248
1 5.32863 1.54437 2.01075
1 36.0854 23.9748 30.9222
1 12.8641 51.2651 8.94252
1 43.432 20.2233 26.4304
1 46.2014 15.2076 6.65363
1 25.432 26.5197 48.5472
1 45.6623 5.01924 12.2136
1 37.2714 23.3174 40.6025
1 53.891 11.4414 15.38
1 1.45201 9.23434 17.6945
1 40.0084 2.02839 11.8288
1 24.2018 45.8143 8.2699
1 18.6771 16.7973 15.907
1 53.1423 14.409 19.6202
1 50.3746 19.039 23.5164
1 32.9607 11.0511 49.4294
1 17.2946 12.8652 5.76221
1 26.6228 31.7794 30.1564
1 34.0189 7.40488 48.9855
1 23.567 29.1709 41.7104
1 21.3409 50.7554 16.6178
1 3.20857 53.2538 45.2069
1 22.243 14.3462 12.9684
1 53.4036 7.27917 15.7763
1 45.0625 23.0715 45.9788
1 38.0585 18.3064 24.4332
1 36.2655 18.6503 19.9876
1 45.2304 13.7098 8.46646
1 0.767299 27.7844 8.06519
1 39.5118 5.83485 11.6189
1 46.8707 51.8062 26.0306
1 42.8783 14.0448 18.9825
1 51.9644 14.7614 20.41
1 8.09472 2.48427 40.4205
1 33.9859 42.8252 40.4865
1 41.5355 4.74632 12.2672
1 29.513 47.6874 48.3812
1 1.39338 10.75 13.5394
1 42.3714 52.7917 12.1553
1 41.6283 3.39001 35.3771
1 14.2315 4.09847 44.2859
1 35.7549 23.2969 19.1004
1 36.9046 43.085 10.8224
1 49.4481 49.8752 52.4422
1 5.9472 20.4157 32.1565
1 1.22082 14.3411 15.291
1 31.3217 4.8218 31.031
1 47.4577 0.448378 23.5613
1 26.4249 20.3648 34.5246
1 41.702 46.6701 10.7821
1 29.3944 54.3397 42.0527
1 29.5918 9.09861 19.469
1 19.5327 12.0851 35.4146
1 36.8959 22.3981 18.8836
1 7.29685 3.25575 38.0386
1 48.884 17.191 16.4444
1 17.477 53.9473 20.9534
1 21.0075 7.39371 1.7126
1 47.6398 14.6203 16.9367
1 18.1151 14.0978 10.7759
1 20.8019 13.3096 33.0851
1 42.2354 52.6232 27.8255
1 37.5192 14.8845 23.135
1 50.2164 8.6151 17.8319
1 9.94271 17.8194 16.0191
1 8.32818 1.61271 53.8492
1 48.3709 6.40661 27.2154
1 46.3155 50.7036 10.6834
1 48.424 12.2513 38.198
1 18.5829 43.0349 34.0329
1 51.2756 4.32553 29.8293
1 41.9052 24.8207 32.3171
1 40.5185 9.88932 33.6261
1 35.8371 24.6609 19.0687
1 26.8827 18.8488 39.6753
1 5.77162 0.618133 40.812
1 6.6681 3.92999 35.5782
1 14.435 3.77951 40.2885
1 44.1427 49.2851 53.0323
1 0.176372 40.3479 3.93155
1 41.8033 18.2148 17.6437
1 50.6088 33.057 24.9853
1 47.4275 44.7243 33.6157
1 15.198 3.58061 33.8658
1 50.5493 51.0036 25.6484
1 52.6761 28.8327 8.12672
1 20.4395 15.0884 31.0719
1 42.8111 18.2655 24.9359
1 3.29251 6.65465 10.8227
1 27.7165 41.3928 51.5693
1 26.2239 30.3074 32.2378
1 48.5305 2.00504 21.9122
1 49.6887 18.4685 15.851
1 53.2727 7.34707 25.2425
1 16.9209 48.5444 8.72461
1 24.1768 47.7234 18.8459
1 46.3804 3.73736 12.0136
1 51.1582 13.5925 16.5742
1 39.1104 10.6762 19.8661
1 29.5049 22.842 39.3351
1 34.7009 7.91086 32.2935
1 33.3837 43.7386 11.3421
1 11.7426 4.46204 24.7562
1 52.2229 9.78836 16.734
1 43.0006 33.6315 9.18028
1 52.9288 23.3623 27.5376
1 35.9183 29.6986 17.7646
1 37.088 16.3483 23.2507
1 1.44424 4.50009 29.2053
1 1.75938 17.8301 19.4132
1 4.62731 4.82509 31.309
1 1.478 8.92868 19.0977
1 17.3223 26.445 48.5639
1 43.0229 18.6765 16.8914
1 49.2763 6.27018 18.9308
1 32.2249 13.6647 25.2607
1 53.677 24.838 32.6531
1 49.3875 9.93292 17.4648
1 39.2821 6.21748 20.9382
1 4.09717 3.31494 9.17975
1 1.80142 13.2349 14.6884
1 26.1353 36.3715 30.5767
1 5.5649 20.268 34.5993
1 14.2441 0.605413 14.5231
1 45.4525 49.4031 52.873
1 37.6782 39.1184 11.5366
1 47.2073 2.5091 21.7852
1 1.9736 49.1701 14.5108
1 34.349 10.1642 20.1396
1 46.7099 18.7099 25.5088
1 53.3249 8.69813 23.3543
1 31.7947 23.7114 22.5586
1 18.5757 53.5856 22.2083
1 14.6141 2.22434 23.8273
1 25.571 45.7017 25.5251
1 31.4493 14.1125 26.3456
1 35.7843 3.35427 0.515973
1 25.385 47.8619 15.9536
1 37.89 0.770742 11.6056
1 17.3824 53.3864 16.2058
1 0.279174 26.5236 9.00593
1 53.0945 10.3653 21.6744
1 42.4134 11.1036 23.999
1 20.6387 15.0783 29.6615
1 44.2327 2.27272 12.2402
1 39.3644 21.0005 18.1193
1 4.51847 21.092 34.1174
1 45.0539 22.6342 15.2064
1 1.45669 21.1079 12.3015
1 1.26099 6.87987 14.1817
1 47.8974 51.8482 45.4504
1 39.6615 8.58473 11.4356
1 37.4588 11.2565 4.7357
1 1.71116 9.18752 13.2233
1 5.65725 7.56711 53.241
1 20.6518 22.2906 45.1272
1 42.5731 24.3101 15.6716
1 39.8709 15.8581 5.64954
1 48.7826 19.7867 25.3684
1 39.4211 11.7249 8.23075
1 36.8311 6.63785 32.6401
1 34.5129 6.25851 40.1083
1 43.9799 10.4783 19.6534
1 22.0581 5.14621 51.45
1 18.5719 16.2177 29.5653
1 39.2526 22.257 17.6975
1 36.0242 6.14974 22.927
1 31.3135 23.4978 37.6817
1 52.2661 24.8835 37.1362
1 8.98739 17.5201 10.5728
1 12.5896 4.28932 29.3198
1 43.0804 5.77753 20.6235
1 44.6511 50.2877 50.6708
1 39.3714 23.0503 44.3232
1 43.3629 46.7006 35.8548
1 43.1449 4.41157 21.5228
1 29.1836 2.23107 36.1368
1 40.9306 19.0463 18.5534
1 46.3282 21.8903 14.9756
1 39.0352 19.3655 24.5467
1 41.4404 25.3563 37.9664
1 34.2052 11.611 20.4778
1 0.942773 52.0901 47.9649
1 37.2433 15.9421 2.37911
1 28.3892 15.2171 31.792
1 7.40391 1.58597 11.7776
1 23.5247 49.5592 27.8523
1 48.5438 50.5536 27.5019
1 46.7296 31.7618 8.37706
1 19.6982 17.029 17.9459
1 28.6725 8.69643 29.3154
1 45.7328 2.36732 11.9918
1 8.26833 50.8962 6.35691
1 24.8211 49.4999 29.2173
1 32.3372 12.1001 27.5693
1 41.7279 25.1302 39.2878
1 45.1163 12.2054 18.6149
1 23.4357 9.82897 33.9066
1 2.61683 43.693 2.10851
1 0.481418 51.2993 1.19871
1 32.7511 5.4999 14.396
1 52.2732 0.668386 19.5758
1 46.8257 3.70041 20.8692
1 31.8101 23.1125 32.8438
1 32.7609 11.4197 28.9801
1 53.4504 49.3764 3.0601
1 31.361 18.4298 24.3058
1 10.0491 8.64527 3.47863
1 3.77721 17.4586 13.4665
1 39.4206 0.78797 11.771
1 3.32895 4.06499 3.0491
1 34.0747 5.61273 24.9247
1 8.91764 5.77942 26.9776
1 22.4556 15.2784 23.1504
1 36.2627 15.8657 20.1949
1 52.6163 8.18007 24.4359
1 27.0495 11.2633 27.3007
1 39.8361 53.8621 27.6915
1 29.2351 14.9346 30.6201
1 43.5974 51.9539 46.2006
1 16.9334 9.09839 42.7906
1 54.0514 52.993 43.3267
1 32.3488 9.39832 34.3914
1 34.471 22.3827 27.1409
1 33.3394 6.51237 43.9122
1 41.5297 51.4231 12.4095
1 47.4657 22.5587 27.9559
1 33.748 15.8772 24.888
1 25.1703 12.9148 26.7999
1 12.2707 1.85058 18.347
1 1.48717 22.8081 38.5279
1 38.052 14.8518 4.41122
1 22.0112 13.3286 30.6751
1 19.1684 7.94266 41.637
1 28.445 25.8082 28.3758
1 33.2309 27.7189 54.146
1 49.0076 25.2702 34.8124
1 47.6545 53.3126 24.2097
1 32.7524 22.9166 21.5809
1 33.3381 49.6657 5.87216
1 30.8922 2.39034 34.2649
1 20.6163 0.273657 31.8137
1 51.1392 23.2414 40.4423
1 41.5885 24.0932 29.9914
1 31.9318 53.4556 36.9285
1 0.210885 8.6166 15.7247
1 6.78145 20.0029 28.3609
1 38.0266 7.31225 28.3062
1 32.0137 26.9562 53.7686
1 26.2307 47.7994 31.7074
1 28.9436 6.97707 31.5949
1 41.6771 53.9856 12.1282
1 40.9888 23.9208 41.5676
1 43.489 12.1839 23.8356
1 23.0133 51.0187 24.0124
1 36.8619 8.02416 21.3409
1 47.0564 13.4673 17.2694
1 49.5563 15.9491 16.0752
1 50.5008 8.49077 25.4008
1 35.2632 22.4469 42.0983
1 42.4272 45.4989 10.3332
1 51.9341 5.48584 17.9797
1 45.4925 7.9915 25.8362
1 23.7548 51.5497 29.6425
1 34.3186 9.28084 53.4253
1 35.1212 7.22567 23.197
1 4.67909 3.03171 6.677
1 25.5595 38.5514 31.7672
1 0.357275 18.0636 20.1039
1 14.2757 20.41 0.157677
1 26.8814 8.03433 32.6731
1 51.4904 25.1218 35.5322
1 14.454 18.4754 26.2569
1 36.4633 51.4074 9.96551
1 45.3177 18.5673 25.8829
1 0.910275 22.6918 41.0738
1 11.9836 4.50402 26.3255
1 46.4689 9.88319 24.4502
1 33.8962 25.9311 20.0513
1 39.8342 27.9009 14.4219
1 28.3078 16.6543 31.9714
1 48.732 12.6459 22.6286
1 47.8925 0.513018 11.7511
1 23.1423 50.2882 25.2822
1 25.4657 39.0009 33.1969
1 39.4346 13.1179 22.8756
1 38.1464 6.99251 10.0183
1 41.7203 6.28508 20.8072
1 35.1956 4.93678 40.0477
1 51.9848 22.0399 25.2337
1 53.2061 12.6971 16.0146
1 40.0711 24.1405 30.1056
1 37.7892 5.71955 33.4886
1 16.701 50.0075 9.06605
1 33.8222 47.9882 43.3342
1 37.6283 9.12945 26.6771
1 23.956 28.9245 40.2286
1 25.9718 33.9043 33.7934
1 40.4602 2.09059 38.1188
1 39.7322 3.12699 37.239
1 23.093 53.5974 35.3546
1 31.3928 20.3285 44.628
1 27.2834 11.1304 25.8213
1 12.4623 21.9189 0.776283
1 39.4822 23.8391 41.8513
1 23.1496 10.743 32.9431
1 50.6013 24.6314 30.6134
1 50.1222 22.8537 42.6153
1 48.377 23.2963 28.8851
1 18.5378 22.0099 5.94475
1 51.0806 0.243625 36.3319
1 52.44 19.9086 49.2817
1 31.2374 46.6047 39.2833
1 28.926 0.644491 40.7574
1 26.2277 49.3504 32.0992
1 34.9727 3.67391 12.1548
1 24.0118 5.08145 41.8587
1 4.53517 31.4144 4.64558
1 45.4192 25.1519 34.1227
1 31.6392 9.81381 35.7641
1 50.3545 22.3478 27.0741
1 25.8163 36.8017 34.1835
1 44.5856 54.1432 40.2179
1 12.3592 3.33745 53.1277
1 25.7966 40.3931 33.2357
1 40.7727 24.8098 40.1502
1 44.3118 16.5883 16.9846
1 43.5539 24.6123 41.9
1 37.5868 4.55106 10.2201
1 31.5093 9.60287 45.1018
1 44.6882 46.8912 34.9684
1 49.7754 23.2282 28.3985
1 28.6277 30.4333 26.4871
1 31.79 7.46357 25.4353
1 43.5765 35.3247 2.89984
1 47.4156 53.556 39.5177
1 34.6357 31.8237 17.7515
1 47.5484 23.3701 41.6544
1 28.5585 43.7521 16.0571
1 49.2846 7.69815 18.7111
1 3.16336 4.24742 15.844
1 33.9658 23.3951 29.262
1 24.1538 7.0696 37.1093
1 37.6936 48.9596 10.6112
1 47.8153 45.4647 31.65
1 53.757 20.3502 47.2917
1 49.3851 2.12686 20.7105
1 37.2112 7.95746 7.83913
1 42.5865 22.9084 46.3442
1 52.1798 7.56944 16.2814
1 41.868 53.2885 44.5827
1 38.2419 9.47312 25.3543
1 40.9449 23.1018 44.3925
1 28.8999 44.4208 37.1488
1 40.4076 19.8166 53.1746
1 32.4466 23.4873 38.9168
1 17.3258 53.4557 18.7189
1 4.32959 28.0411 6.31057
1 37.561 20.609 49.2337
1 23.4706 4.0127 48.3493
1 47.3991 19.8112 53.1571
1 42.7775 25.5375 37.2885
1 45.8459 12.5571 23.0367
1 4.89455 1.54678 4.55331
1 48.6983 23.366 40.6895
1 30.8817 5.8631 30.0878
1 29.3766 4.44004 34.3621
1 48.9455 23.1678 43.5687
1 43.4033 6.33485 12.4743
1 42.9451 49.2526 52.1908
1 47.786 1.4383 34.8354
1 46.2308 23.2186 45.1635
1 11.0257 3.81311 38.6413
1 54.1678 0.345704 5.26299
1 50.0059 50.5614 51.1151
1 45.3856 18.8256 16.0238
1 26.4001 27.908 33.2378
1 51.6036 24.7642 31.7576
1 41.2537 14.5016 7.20305
1 52.536 9.8985 22.8697
1 28.7685 0.953436 45.8015
1 41.5076 7.6801 20.2782
1 39.7615 22.3847 46.4361
1 39.3782 1.51517 43.6604
1 12.1124 17.9635 20.8286
1 44.502 6.75967 28.0588
1 20.2869 3.78939 38.9098
1 48.48 23.4666 39.2694
1 40.2196 12.497 19.044
1 2.26729 32.4555 4.70863
1 29.2806 41.1231 42.0537
1 41.5707 21.873 26.9471
1 32.957 20.693 44.6261
1 45.4642 25.7819 13.0113
1 45.8081 50.0371 51.7412
1 37.658 24.7802 36.1669
1 28.7417 33.549 24.5286
1 47.6585 12.1347 17.352
1 19.2332 11.4919 36.5776
1 48.0214 21.5495 26.8669
1 53.9375 3.00617 32.8728
1 38.5187 23.9321 40.6764
1 50.6962 15.8156 22.0253
1 53.5089 23.9278 39.1904
1 46.7201 7.75596 19.2738
1 0.386696 10.2331 17.5586
1 21.4153 19.9007 45.4768
1 39.6144 24.6364 31.4023
1 18.9946 51.431 15.3748
1 47.4302 10.8222 24.0085
1 17.4883 21.3993 50.0558
1 36.928 7.76299 6.31644
1 35.6845 49.2434 47.6731
1 45.6725 5.6184 20.4068
1 8.19283 19.04 7.69158
1 49.8746 54.0881 22.486
1 37.9249 8.42558 20.4968
1 51.7676 17.1013 15.6838
1 47.0053 25.2568 36.4873
1 33.9828 14.3659 50.9248
1 27.6504 42.7982 35.8613
1 54.0058 21.8935 44.5978
1 25.9943 37.1728 29.265
1 33.9703 46.5043 8.55602
1 33.156 44.1551 44.7918
1 31.4548 29.9831 21.8982
1 45.7419 13.4409 18.0689
1 0.90124 24.4865 35.0322
1 48.8725 53.2137 38.8253
1 48.8455 7.16712 26.2406
1 26.7261 4.19314 38.2613
1 21.2314 4.64843 48.9581
1 51.512 6.6133 26.8757
1 47.7455 46.2902 8.29573
1 38.9467 6.7394 29.3394
1 20.9814 4.74343 45.3093
1 44.2043 52.1064 44.9144
1 20.6979 4.51377 47.7289
1 41.8927 13.7571 23.0974
1 41.1161 23.162 45.9691
1 53.5583 21.9409 24.8585
1 45.7998 24.656 13.6509
1 35.3801 6.78874 33.1214
1 5.35673 53.7786 49.8491
1 39.5739 16.9512 23.1709
1 35.0903 1.29535 31.2639
1 33.4002 51.4618 52.1001
1 47.7258 23.4893 43.175
1 49.2121 24.7791 30.7916
1 42.8672 24.8072 33.5218
1 47.2333 17.4214 24.9529
1 27.0546 40.9279 37.0424
1 36.71 23.3524 28.6646
1 48.887 21.8712 14.2489
1 44.7573 29.3761 10.62
1 53.1206 36.3148 5.01345
1 16.0154 2.15486 31.0068
1 33.9586 47.3735 38.0721
1 37.8067 16.8907 1.54448
1 46.2876 24.0704 41.4962
1 42.0018 23.4846 28.7071
1 27.139 26.0654 31.8073
1 46.7217 6.36117 19.7496
1 43.3212 29.8274 10.7055
1 32.8054 50.7245 37.1794
1 37.4977 28.3664 15.9041
1 47.9712 21.6311 49.9349
1 50.3391 3.66809 19.015
1 19.2439 22.7562 5.02397
1 32.8655 8.27806 39.9435
1 33.2826 8.56425 37.3482
1 43.74 25.6252 38.3442
1 21.4139 8.7124 2.45681
1 2.89096 22.6142 35.0348
1 18.4778 48.3975 8.87417
1 28.4983 51.1098 36.239
1 43.2432 25.3034 39.6316
1 33.9675 45.0363 44.0186
1 34.905 16.3507 24.7207
1 44.1156 24.8378 40.628
1 41.7552 33.0003 9.44848
1 4.63434 53.4828 0.518995
1 41.7592 4.97445 32.102
1 34.8835 6.98668 37.2139
1 23.3139 7.01879 38.3937
1 48.8706 22.6017 45.0009
1 47.3571 49.3525 9.15384
1 35.3079 2.35688 2.8161
1 26.8095 37.8998 36.5484
1 6.15522 20.3186 22.0579
1 42.4467 20.7922 53.097
1 50.8211 20.3647 50.7194
1 15.5479 54.0916 14.7217
1 35.7729 53.9153 54.0437
1 0.779427 20.5863 23.2364
1 53.4257 24.9246 11.3988
1 39.7391 18.2757 18.9128
1 35.1078 21.1151 45.6828
1 25.8646 3.87693 48.0614
1 1.91282 3.5603 4.72136
1 19.0137 20.2581 48.1522
1 12.1188 7.96782 47.2759
1 41.0846 1.28823 41.7793
1 46.253 24.805 31.7191
1 30.3629 7.60869 28.0684
1 7.00626 33.9006 1.60033
1 35.3881 8.42201 30.8739
1 39.898 0.511027 44.4009
1 30.4064 53.7918 46.8385
1 4.28311 20.9834 25.616
1 40.3135 19.6623 0.387762
1 20.4457 7.13888 41.8465
1 50.2269 16.9309 22.7969
1 46.7876 25.1884 34.1151
1 32.0056 43.4065 42.9221
1 49.9839 11.9288 22.654
1 46.8888 51.5944 48
1 10.9825 47.4039 4.30417
1 43.5933 47.8312 10.892
1 19.9853 0.304984 25.507
1 41.3551 4.67001 33.4966
1 48.3958 51.6834 9.50174
1 14.5746 7.27358 46.9769
1 19.2617 52.076 17.5906
1 1.28225 52.3175 50.6736
1 52.2041 50.8421 52.2338
1 29.6791 45.7678 37.4131
1 41.4981 15.3556 23.2124
1 27.232 7.64535 8.66477
1 32.8788 11.3032 48.0328
1 41.2549 52.9475 45.7941
1 26.9068 7.03242 33.8575
1 5.14011 5.57045 6.82586
1 27.69 42.2298 37.0637
1 29.6768 18.006 26.2374
1 33.4079 8.34946 32.6093
1 25.8093 35.9 35.3875
1 2.72093 53.2078 42.5583
1 26.1088 3.14381 46.7753
1 45.932 52.4741 43.2731
1 34.3261 8.03995 36.3893
1 33.999 6.40877 47.7063
1 7.86907 12.7506 7.84507
1 17.563 4.90399 45.9428
1 45.5496 51.9884 44.6111
1 15.4003 11.3476 40.2385
1 40.9848 25.676 35.0356
1 51.744 25.7326 34.0026
1 14.6949 3.66504 35.2319
1 22.4711 27.5657 43.4927
1 36.3704 7.51179 30.3199
1 36.7401 13.597 2.74543
1 38.334 19.4611 51.3411
1 30.9926 11.4317 41.0716
1 52.7605 52.0501 46.9439
1 4.96352 1.68087 6.06647
1 36.6692 7.90832 28.9685
1 37.9208 0.459724 46.068
1 15.2407 54.3883 17.2206
1 42.3742 7.28811 27.2513
1 30.0963 12.8135 36.8754
1 34.5494 50.1624 47.6329
1 41.9854 24.4239 42.5253
1 52.6878 1.42687 35.2005
1 44.9347 50.0758 29.1206
1 50.0444 25.2678 35.7966
1 17.9703 5.37912 42.9325
1 23.7234 5.13561 53.3083
1 9.42414 4.70665 23.3273
1 41.0825 6.16859 30.0299
1 23.7208 9.18252 5.61586
1 11.6304 2.91877 48.5402
1 31.264 39.8848 50.9526
1 42.1623 23.9731 43.8523
1 43.1766 4.57145 31.7179
1 42.8997 21.2558 27.1357
1 53.938 25.2787 35.0566
1 52.8808 24.53 31.3949
1 45.8538 23.5879 29.4562
1 39.7197 1.81011 42.4047
1 15.4458 47.3751 6.83584
1 1.74589 7.22901 4.23343
1 42.7232 8.24406 19.6805
1 42.2477 0.752504 39.5529
1 47.6075 23.0251 45.7466
1 45.0116 20.7997 52.372
1 38.8619 14.4182 22.7621
1 35.2355 8.18381 0.0599469
1 44.5832 9.74358 11.8409
1 36.3015 4.70943 39.1806
1 48.3284 12.8301 36.8649
1 28.8742 10.9054 23.2974
1 43.6334 14.7796 18.1838
1 40.1014 53.5417 46.4399
1 50.4947 53.5637 8.89258
1 35.2149 17.9389 20.6211
1 26.8159 8.15284 9.95649
1 34.1325 44.8243 47.0744
1 33.5075 51.7644 53.3484
1 6.23791 18.1614 18.0004
1 33.476 27.267 19.8776
1 53.2356 10.5692 7.29048
1 38.1614 4.93909 35.9732
1 32.471 49.6087 42.2531
1 49.3566 24.6004 37.0996
1 42.0467 17.4357 23.9207
1 33.4098 8.45946 34.1133
1 17.1332 6.32917 52.6492
1 6.52968 6.3688 53.0963
1 22.5083 8.25927 3.64331
1 41.6066 0.450737 42.7758
1 35.1489 5.46591 50.1042
1 2.1827 8.09897 21.1891
1 33.0797 7.92124 41.5389
1 45.4696 24.2466 40.2287
1 38.3004 51.5665 51.2149
1 44.0734 11.9291 19.6283
1 47.8724 46.5346 30.9151
1 22.9108 4.41408 50.628
1 30.315 11.6172 39.7952
1 17.015 4.75762 47.3645
1 12.5531 3.36108 24.3798
1 18.9004 4.24559 39.4898
1 46.6786 43.656 34.117
1 41.6498 48.9281 11.9769
1 28.066 6.32113 33.7211
1 1.04413 0.161346 39.6175
1 43.6672 53.3758 42.7954
1 25.6423 6.33278 4.35986
1 42.1212 3.79779 34.1766
1 47.8929 24.7475 37.515
1 44.4926 49.2062 31.8017
1 30.7686 4.10003 10.5228
1 19.5102 13.3839 8.61845
1 42.9689 44.0155 35.4194
1 38.6433 25.4808 35.4168
1 27.4221 37.5505 38.893
1 40.7714 5.30669 31.0668
1 40.9985 54.0807 43.7701
1 36.4664 44.7965 37.0723
1 32.2374 52.1377 47.6339
1 24.0857 7.86061 35.8154
1 39.9229 4.78635 33.725
1 38.6817 22.6941 45.615
1 12.3091 29.6397 53.1815
1 34.6365 6.90303 38.643
1 17.3418 6.73451 43.1368
1 53.8032 23.0203 40.4453
1 19.2673 50.4544 11.7155
1 26.95 19.1769 42.4766
1 19.1118 26.9877 46.5189
1 47.6881 19.2669 26.3749
1 0.488625 19.9044 46.4919
1 32.161 9.57641 39.7326
1 44.3313 24.4556 43.2589
1 49.9941 10.7888 23.4146
1 42.1517 50.7968 50.3277
1 9.50519 0.835936 10.6797
1 13.9393 15.8518 7.0311
1 24.8967 9.33358 7.76756
1 45.2294 22.4486 47.3034
1 49.0321 21.7041 47.7127
1 48.812 10.0812 24.0693
1 50.6282 6.22908 10.4523
1 1.34501 19.7205 22.0577
1 25.5378 50.4332 31.4088
1 30.3278 11.6832 31.9077
1 39.6712 45.3308 10.5952
1 33.5202 7.91826 38.7034
1 18.1291 10.0155 40.6164
1 53.851 9.87552 16.1735
1 8.55316 20.4502 5.18382
1 37.1992 21.4842 47.0223
1 41.2967 20.5267 52.2918
1 39.47 52.7223 12.2838
1 37.2512 6.8806 31.2842
1 39.705 9.82657 25.354
1 39.5971 22.055 47.8141
1 30.6008 10.9087 35.8194
1 43.4533 21.2498 50.7039
1 16.1115 54.0681 15.934
1 34.1539 7.66067 35.0582
1 24.8767 4.76175 40.8377
1 27.5966 33.0768 26.4863
1 24.9976 23.0922 39.399
1 25.6393 10.8292 14.1097
1 21.2055 10.0297 35.1742
1 38.0219 21.3738 48.2181
1 34.4796 6.81242 50.2418
1 34.1233 18.9423 20.9491
1 34.199 21.7231 20.5593
1 11.2045 25.7991 0.459243
1 21.6294 53.2074 26.8961
1 15.4299 6.71973 0.802751
1 3.18279 5.58059 3.01247
1 27.8539 16.6914 36.745
1 28.4027 32.669 25.4658
1 47.354 49.9209 28.5552
1 27.7968 1.66499 40.7366
1 31.6292 9.83295 38.4462
1 17.97 11.7417 37.2204
1 29.1543 14.7652 37.9654
1 46.1289 10.7727 18.8282
1 28.598 6.57062 10.9244
1 32.1964 12.6466 47.7913
1 32.8534 16.3293 21.3898
1 45.9601 24.469 38.7799
1 15.5199 52.0526 11.5858
1 8.61263 18.9153 19.3301
1 39.8143 16.8925 4.62262
1 27.2284 5.31689 36.0169
1 51.7869 12.308 16.299
1 32.6022 8.39336 42.6167
1 34.8777 12.466 19.8503
1 29.4008 40.3829 45.1278
1 35.4535 48.2364 53.3257
1 5.58821 40.2496 1.27237
1 5.44044 1.52263 8.16338
1 3.754 40.9249 2.25002
1 17.0449 8.03578 1.86315
1 40.1862 14.0051 19.1203
1 28.7846 0.797985 43.2707
1 7.74005 37.1836 53.6832
1 33.0686 16.8462 48.2744
1 4.3989 42.1193 1.75661
1 32.8141 2.65284 32.8776
1 40.1852 48.8954 11.7804
1 19.0233 47.299 8.09037
1 36.1934 2.511 48.0782
1 0.702729 45.2982 3.19858
1 25.7145 34.772 32.6834
1 7.24692 53.164 7.34843
1 30.2563 36.1595 21.3575
1 11.049 48.5858 5.17946
1 5.77589 33.5372 2.26154
1 24.1676 53.1551 34.4897
1 35.6942 0.622645 7.72488
1 32.745 7.77913 46.4715
1 41.5034 14.6586 19.1981
1 37.7362 12.8116 6.49739
1 31.1231 53.8818 4.42859
1 9.59599 1.81505 47.5015
1 35.6471 53.6521 7.03032
1 27.7773 28.746 28.6069
1 31.734 44.8882 0.168718
1 1.26118 23.49 31.1959
1 29.8985 1.44745 7.1303
1 45.7915 51.4875 11.7384
1 38.6561 20.3077 25.5487
1 25.8586 47.7542 14.454
1 36.4062 49.5643 52.4627
1 10.2822 18.6696 4.50902
1 13.1438 11.0828 4.22633
1 32.3978 11.257 30.3493
1 10.5221 40.9554 0.886912
1 32.3909 2.79793 11.3718
1 11.4642 3.72247 0.093086
1 46.3286 49.6044 54.2211
1 35.2203 50.4475 0.539269
1 7.75345 27.7971 3.08078
1 39.3073 50.0392 12.0454
1 43.5808 5.40888 30.5755
1 33.0662 23.6677 20.4818
1 33.8032 37.7703 15.3738
1 35.3709 -0.00700299 3.19367
1 50.7211 47.8675 6.75535
1 35.4999 2.2687 53.9193
1 11.8148 34.5502 52.7458
1 34.4939 52.3456 1.70378
1 45.5217 53.7227 41.1427
1 53.2613 17.2974 19.7761
1 49.824 1.20981 10.7088
1 30.709 53.9288 0.1828
1 22.3498 5.5541 52.8793
1 38.1678 47.6522 10.8962
1 6.35591 48.4293 2.47176
1 28.0427 6.057 8.53328
1 42.1577 52.3552 46.744
1 38.1572 43.6705 10.2905
1 18.2637 42.4337 2.78631
1 5.28222 37.4317 0.984131
1 32.7697 0.642016 34.4647
1 34.8091 49.1319 0.0551388
1 25.1884 28.9143 37.874
1 45.1759 14.6923 7.46752
1 13.3249 47.1463 4.89706
1 40.612 52.5938 29.7429
1 38.183 20.3361 19.0872
1 14.4788 46.2785 4.73136
1 32.2756 17.5206 47.1793
1 17.1676 17.7352 20.6402
1 9.83037 9.53238 47.0461
1 29.19 26.317 25.9971
1 6.25428 17.2489 13.5464
1 45.6325 21.5265 50.2307
1 1.15508 1.17225 4.64869
1 19.1053 23.009 47.0956
1 36.1291 0.168794 52.6088
1 30.1802 22.9511 24.6964
1 31.7613 15.1064 47.029
1 47.9221 5.68618 12.4845
1 49.831 49.9636 27.7905
1 17.2274 50.2196 10.367
1 13.4575 1.34708 15.7382
1 11.3772 14.8962 6.92006
1 4.56425 53.0981 52.3544
1 32.7234 49.422 4.67139
1 46.681 22.0072 49.3327
1 21.8589 5.65107 42.8676
1 36.2708 0.81096 8.89302
1 28.8215 14.6767 35.7026
1 31.0267 4.50325 32.6111
1 0.968482 36.4558 3.8383
1 0.945528 20.0704 13.3412
1 24.901 45.3536 7.03399
1 20.6554 12.6176 8.10011
1 10.4912 4.38972 36.4334
1 31.5279 21.2447 23.4451
1 11.4051 10.9633 45.4162
1 46.345 16.5338 24.0584
1 4.55216 39.7482 1.77676
1 43.1878 20.2578 16.9161
1 48.8562 31.9169 7.41658
1 10.8628 2.98913 43.5509
1 28.8639 44.7994 11.2859
1 24.7721 8.13703 5.64658
1 34.8692 23.6353 40.0887
1 36.7413 24.0644 38.1353
1 52.6483 50.6678 22.398
1 43.8981 27.4679 12.1226
1 7.47066 47.6719 2.61197
1 53.3377 46.802 3.95001
1 6.50383 46.1509 1.21545
1 32.9108 22.682 41.2953
1 12.0849 48.6666 6.2318
1 10.3017 36.8213 -0.0260047
1 54.1948 41.7314 4.33797
1 5.61591 4.73533 19.8858
1 38.6152 31.3997 12.1598
1 36.4078 24.4048 35.8717
1 45.7056 31.1307 9.19203
1 40.4848 52.2447 48.5509
1 10.9306 16.3795 8.47802
1 9.98752 47.3083 3.20015
1 28.1386 23.3408 28.9983
1 11.357 1.7851 17.0481
1 35.3528 1.62534 5.42285
1 12.7726 16.8519 11.8191
1 31.2183 31.3716 22.2639
1 26.0639 29.2399 35.6658
1 13.9036 4.86533 54.0027
1 1.45157 24.149 36.276
1 9.49148 41.8942 0.959853
1 37.8438 49.9275 11.6615
1 23.4875 48.8129 20.9522
1 1.65215 24.1498 33.9058
1 17.7632 32.962 48.6444
1 14.2547 47.9516 7.1989
1 16.6015 16.2681 11.4372
1 35.8277 52.605 9.24419
1 18.3835 17.3479 20.1009
1 1.80472 5.02003 4.87113
1 31.4839 6.60064 27.6511
1 35.743 3.13108 46.8352
1 35.6756 9.7505 1.77491
1 2.30965 41.0863 2.69407
1 1.91672 38.7618 3.20899
1 30.4314 48.0964 37.4619
1 8.29239 0.728022 51.5256
1 52.8674 6.49341 26.6211
1 30.567 0.2339 7.17081
1 27.455 27.8243 29.8037
1 47.5782 22.1714 47.1042
1 53.2868 17.3356 15.7674
1 53.0763 48.1716 3.97075
1 0.588175 13.0172 1.43244
1 29.6749 33.2335 23.4758
1 34.4656 46.002 44.8383
1 33.3239 9.85503 49.6627
1 35.1255 16.5849 20.6688
1 11.0161 9.83982 46.2004
1 19.5319 5.00076 45.0604
1 26.3485 9.61035 14.1959
1 40.8543 51.0144 32.9991
1 1.34529 23.4192 11.029
1 51.1187 45.1934 5.98193
1 27.6653 30.1463 28.8382
1 22.8726 30.4414 42.3177
1 36.5639 49.9659 35.9331
1 42.7262 53.9453 41.8621
1 51.4246 33.4624 7.1421
1 14.0333 50.8839 9.73964
1 14.8447 26.0198 51.682
1 13.169 47.8464 6.22401
1 2.73355 30.5261 5.74414
1 35.2432 2.54452 4.28031
1 9.72124 43.1785 1.63337
1 4.09236 43.5117 1.99122
1 13.2911 12.492 4.49429
1 28.862 45.0957 4.38853
1 35.63 6.18551 4.48979
1 43.2739 16.0834 17.8024
1 39.1183 49.9435 52.7757
1 4.42869 38.408 1.89591
1 44.0295 51.1244 48.6154
1 53.1195 52.3957 5.44244
1 51.5322 19.4245 14.5308
1 14.2727 41.444 1.08336
1 43.2805 52.9447 44.0204
1 2.66549 45.9509 1.33512
1 33.0646 51.3796 35.9312
1 37.4417 3.81627 39.8267
1 1.99708 45.0607 2.00878
1 -0.083357 48.8775 22.8361
1 10.5143 51.5703 8.10313
1 52.2446 12.3982 6.04502
1 33.5256 50.1513 2.49748
1 35.4981 8.3299 21.0128
1 34.8491 20.2551 20.762
1 27.3617 6.37725 6.33176
1 26.7179 40.74 50.8187
1 26.461 25.2352 32.6345
1 53.7063 5.94676 27.4303
1 38.8022 14.6203 18.9077
1 39.4144 18.3739 0.476465
1 34.9858 3.86387 5.07589
1 2.06455 16.0694 49.1709
1 34.7515 52.9797 3.07466
1 29.8714 5.06829 33.3379
1 1.31467 16.5977 50.5095
1 35.7996 51.0732 52.2904
1 44.4684 49.0615 11.2878
1 32.8556 50.6827 3.76978
1 32.9889 23.4954 30.4829
1 40.9256 25.9869 15.0804
1 15.23 4.81953 51.4178
1 47.3642 50.631 9.90695
1 36.1037 46.6184 10.2927
1 11.9192 49.7926 6.87231
1 33.9654 45.3783 9.59932
1 7.70483 6.54273 52.1877
1 30.1337 0.797484 2.26675
1 17.2967 52.558 13.615
1 2.10746 47.3305 1.53143
1 33.8697 48.3663 0.8673
1 31.6471 53.2736 53.5173
1 31.2081 19.3009 45.5973
1 24.5355 7.09986 4.6676
1 14.2568 49.4064 7.84451
1 35.6318 1.57361 52.268
1 36.1066 5.48299 6.85242
1 34.7232 11.5125 52.9833
1 0.310307 44.0784 3.61232
1 18.3648 21.4367 48.7663
1 24.6015 41.102 53.4036
1 1.95443 42.5033 2.65236
1 12.9356 50.3559 7.66587
1 19.6261 51.1697 14.2305
1 11.4484 9.20531 3.42757
1 4.99671 17.008 12.7403
1 9.61332 52.5816 7.75371
1 18.8835 51.1489 12.8027
1 44.7036 38.1379 7.85658
1 27.52 2.36944 39.5846
1 24.8712 50.8388 29.9906
1 38.1912 45.42 10.8218
1 10.5332 30.8286 -0.0172586
1 48.4893 47.3293 8.06303
1 27.3061 49.5106 33.2951
1 48.5964 0.636181 22.4114
1 38.0935 24.4643 17.7952
1 4.93168 13.1642 11.7957
1 35.6683 15.5453 52.5102
1 19.288 4.81993 47.4274
1 37.228 6.90016 8.89877
1 35.356 26.78 18.4103
1 19.5032 24.3411 46.3023
1 18.4871 33.255 47.5598
1 3.87941 19.2569 19.0475
1 37.8996 24.4691 37.5878
1 49.3393 38.7602 6.25949
1 15.9343 17.9021 19.858
1 2.80677 17.4762 15.794
1 31.1544 43.865 40.0173
1 36.3769 15.4752 53.8955
1 35.6159 2.99432 7.35961
1 17.6807 6.31255 54.0868
1 29.4482 9.94974 27.0448
1 44.5119 25.3627 35.552
1 51.4987 51.3183 24.5926
1 34.9225 45.8584 50.4563
1 43.1811 11.1877 10.7012
1 3.60324 52.8586 51.4017
1 32.5589 28.0444 20.6836
1 48.3575 7.71707 11.2526
1 34.4391 50.9597 1.86073
1 23.846 47.9362 11.4031
1 34.3852 12.7265 24.8682
1 47.6974 18.533 1.26286
1 35.4822 31.8794 16.3101
1 28.759 45.1557 13.8689
1 49.2616 8.55582 10.5417
1 29.234 10.5785 21.752
1 51.2109 20.8818 24.7189
1 53.5695 4.66537 16.3511
1 50.5028 38.6709 5.47786
1 53.3306 49.8553 23.1929
1 2.11622 8.02294 19.8937
1 46.6029 20.5641 15.3711
1 52.7075 49.0799 25.4264
1 53.7599 3.90521 30.6914
1 13.9359 3.72193 32.9032
1 46.714 50.6679 49.172
1 41.7179 12.4437 8.96891
1 44.0205 24.5001 30.7943
1 44.439 23.9062 29.5383
1 30.4801 17.5408 25.0564
1 45.0494 21.7249 27.9358
1 10.8307 4.78428 34.921
1 41.067 54.5348 27.1158
1 46.5452 52.87 25.1304
1 39.909 16.6811 18.9055
1 37.1493 36.4811 12.2972
1 7.45421 29.3417 3.10528
1 40.789 21.2557 25.9468
1 49.7986 22.7864 13.4598
1 4.46637 21.7317 27.8911
1 30.802 40.9913 16.5318
1 36.3303 20.1268 20.2503
1 3.83152 33.6831 3.35973
1 26.687 45.722 16.5203
1 51.3568 52.0617 23.4001
1 26.1868 10.4337 19.0242
1 44.3075 8.58412 25.8164
1 50.468 24.8289 12.288
1 37.2023 16.5052 0.116254
1 28.3955 45.2994 10.0834
1 37.0244 52.1324 33.0861
1 40.5426 4.39842 22.0987
1 16.6327 15.7701 9.91122
1 21.7988 11.908 8.95175
1 43.8315 0.955423 24.0341
1 41.1064 19.922 25.4402
1 16.3731 24.9089 50.1269
1 24.0853 52.5243 32.0274
1 49.1324 40.3011 6.40873
1 44.6409 39.5519 8.00591
1 50.4238 32.7858 26.3089
1 2.25983 35.7152 3.07088
1 19.2522 13.3633 34.8986
1 26.3893 45.0134 31.3255
1 45.9626 44.977 8.67019
1 5.48101 4.80742 33.4986
1 26.8239 28.4022 30.957
1 6.97895 14.4954 8.95689
1 49.8021 13.5359 16.7833
1 37.3157 16.4078 19.2842
1 3.32071 21.9797 10.9282
1 0.771051 37.8298 3.64454
1 48.1735 40.6085 7.44578
1 34.6041 35.3624 15.4401
1 43.3228 41.3941 8.66583
1 51.9865 30.0042 7.6482
1 10.3902 2.66787 41.0861
1 47.384 22.52 14.1275
1 41.6599 11.7539 19.364
1 0.840671 42.7408 3.72496
1 27.2683 16.3197 34.1511
1 26.648 44.7286 33.7735
1 3.99118 17.7197 15.0283
1 22.4904 50.6097 22.685
1 51.0346 6.0834 28.2236
1 0.961257 10.5999 2.3956
1 24.6647 25.2802 38.0294
1 28.4407 38.1166 22.335
1 29.4332 12.7856 31.8606
1 16.9175 1.65014 29.9784
1 36.0084 2.08347 28.5037
1 45.1765 9.80212 19.2231
1 17.1276 23.8274 49.8489
1 40.339 43.4234 35.8547
1 27.6116 11.5036 23.5413
1 15.042 5.74412 53.799
1 33.1882 1.62818 11.2381
1 11.6232 19.0875 29.0593
1 38.0985 17.39 23.3475
1 3.15739 2.23974 36.8055
1 20.6647 28.5193 45.0642
1 34.6509 13.0323 53.3567
1 26.0046 44.4023 20.7939
1 44.45 42.2809 8.52502
1 38.905 44.9758 37.3156
1 49.9306 20.7939 25.494
1 0.80435 10.0943 19.9563
1 51.612 40.9485 5.05317
1 19.7286 15.9322 28.9033
1 27.214 40.3414 23.7841
1 5.9027 36.1561 1.57597
1 44.7413 19.8038 26.5091
1 25.4452 5.1233 38.4288
1 48.9377 14.5729 16.4506
1 37.0428 20.337 25.2274
1 52.826 19.8597 23.2078
1 26.1911 34.0579 31.4645
1 51.4074 39.5412 4.67247
1 53.3596 51.4675 49.6062
1 50.0815 25.9996 11.3276
1 42.8728 8.23051 26.2647
1 23.1647 51.8401 28.4481
1 48.053 24.5938 12.7656
1 29.4657 28.6131 25.2139
1 42.5118 20.3997 0.541336
1 51.2986 11.0239 16.8962
1 53.6599 20.6757 23.9318
1 48.54 27.587 9.9481
1 30.6874 13.6922 28.6339
1 34.5351 53.0745 34.1114
1 36.2032 48.8889 48.8817
1 45.8263 40.3131 8.10702
1 40.536 5.63053 21.3194
1 29.5037 47.1872 36.9319
1 26.945 43.9893 19.7873
1 36.01 16.838 24.2455
1 47.0339 17.1613 3.3353
1 7.32814 2.76973 16.741
1 30.9605 20.0715 24.3264
1 8.01215 18.8529 35.2447
1 47.3287 52.3563 42.9761
1 25.3189 6.08918 37.2005
1 45.7487 4.4439 21.0563
1 53.8857 38.9608 3.98377
1 42.2457 21.6126 50.2651
1 35.2094 17.8797 49.7747
1 29.6298 37.4511 21.3923
1 39.9351 4.43346 12.0963
1 36.4185 19.9751 48.9436
1 37.9621 36.7284 11.0893
1 45.3503 8.44351 19.6158
1 35.9951 6.608 5.89328
1 29.7399 3.05354 34.9959
1 52.6818 5.96288 7.44711
1 6.19001 31.9998 2.87838
1 33.9251 4.58045 14.1866
1 34.3738 7.25987 51.637
1 16.489 22.4786 50.1332
1 47.6007 19.4485 15.5831
1 1.93605 2.24221 35.9714
1 49.5093 21.4086 26.6174
1 0.690266 22.5808 12.0386
1 53.9543 31.0328 6.69566
1 31.6727 50.712 38.1353
1 33.0445 19.0128 22.2977
1 48.6201 36.2227 6.86859
1 43.4291 40.039 8.49107
1 13.1185 39.6087 0.139639
1 47.8811 3.48514 31.357
1 51.4206 19.9704 23.4977
1 53.6377 22.8786 12.6886
1 26.6122 43.2602 33.8013
1 42.9317 13.2784 8.30818
1 50.862 20.5001 14.1205
1 48.0943 24.1139 29.9496
1 46.7152 29.2022 9.23172
1 46.3536 52.6695 11.8763
1 42.2488 39.4018 8.58413
1 41.1394 41.3567 9.59237
1 50.1897 41.2107 5.74218
1 19.4236 16.8554 22.3784
1 48.4017 37.8309 6.86542
1 52.235 6.5658 8.88569
1 40.8458 12.796 22.9986
1 10.158 18.4588 17.2832
1 30.63 45.5318 38.3869
1 36.3192 21.3623 25.7207
1 30.8437 52.7374 43.0486
1 50.2546 2.03827 9.45713
1 43.9604 20.6562 15.6996
1 34.8647 16.7438 50.4959
1 35.7305 46.7774 51.3725
1 48.1976 17.9442 24.0766
1 37.5934 3.58019 25.1767
1 37.9821 3.38836 10.9662
1 48.1964 20.8755 51.1494
1 40.4448 1.16565 25.9925
1 5.83885 30.9621 3.79592
1 35.4472 23.4699 29.5901
1 53.8572 33.396 5.79194
1 7.05996 35.4281 1.13886
1 39.3483 47.0857 36.338
1 27.8811 21.7033 40.7889
1 34.9744 47.8247 37.2551
1 4.88494 21.0048 29.0337
1 37.3316 17.8417 19.5064
1 48.9601 52.8608 24.4973
1 36.0512 3.28502 8.85621
1 11.4566 18.805 30.5424
1 53.8158 13.7847 15.2658
1 24.7566 9.16724 33.7542
1 3.33582 9.4832 11.536
1 27.1086 41.694 21.498
1 41.816 11.2545 9.94982
1 27.9142 50.9707 34.9715
1 12.0451 23.2845 0.837747
1 10.9785 45.1422 2.21395
1 47.8297 25.7799 12.0489
1 46.9027 23.8423 13.326
1 1.58007 40.1183 3.27845
1 3.28952 36.5346 2.44529
1 35.4612 11.8964 24.4734
1 33.8877 10.603 28.2819
1 14.6334 17.4529 32.8942
1 30.0644 24.2695 24.8877
1 20.5993 24.5903 45.3347
1 45.7398 17.7029 3.32871
1 29.7358 1.19303 38.325
1 32.1888 8.42 23.2672
1 6.94592 0.547276 47.9925
1 52.4373 52.1157 22.3939
1 44.3298 2.91109 34.6944
1 26.9371 38.4671 37.7091
1 47.9836 4.25146 20.1179
1 43.5858 2.13353 23.495
1 42.6845 22.6823 15.8337
1 41.5523 49.8954 33.8986
1 27.3596 38.0844 42.5718
1 34.8839 30.4819 18.2945
1 18.5149 28.1779 47.0154
1 48.0476 10.8062 10.8262
1 22.1125 53.9705 34.4795
1 23.9448 31.485 42.1755
1 47.2245 12.1632 23.3442
1 35.8024 24.3006 34.5906
1 30.8485 52.8098 40.5624
1 13.4891 25.9221 52.4627
1 26.0649 43.4874 31.3696
1 39.6662 3.7879 23.0052
1 31.3125 45.0824 10.3055
1 34.1615 7.05038 24.2756
1 42.967 48.2179 35.6682
1 23.2057 49.1442 22.3789
1 2.9124 18.6814 13.1042
1 19.5825 34.1384 47.5381
1 25.6974 47.3802 30.5105
1 32.8778 51.6096 46.3459
1 31.7904 51.56 40.704
1 52.554 25.7026 10.6901
1 47.7028 27.5753 37.5995
1 30.453 42.8349 52.4714
1 17.9104 52.761 17.4263
1 41.1212 24.8419 15.8233
1 35.4121 1.0309 0.497963
1 44.1416 7.81674 19.785
1 38.43 6.25348 30.6431
1 22.8243 25.1071 43.554
1 18.2157 4.8378 48.1407
1 46.5999 23.6244 43.8478
1 21.957 52.933 28.2314
1 31.2808 42.61 50.4756
1 14.7801 2.83781 30.451
1 33.2629 30.5611 20.2169
1 46.7546 15.0563 23.6994
1 41.9215 3.87948 22.2343
1 49.2341 18.7711 24.3803
1 30.879 9.01575 23.1443
1 22.6268 49.5038 18.4235
1 21.8303 14.6961 28.8174
1 38.6785 48.3088 35.9639
1 34.2835 41.5935 41.6425
1 25.6525 22.5336 38.2204
1 46.0456 50.3337 27.9527
1 26.6506 45.6081 32.5328
1 44.2317 53.0463 25.8054
1 23.2154 50.8504 27.4414
1 2.39185 5.93767 17.4923
1 14.1664 0.0496673 12.402
1 31.5727 33.7562 21.773
1 2.70271 6.98427 22.3088
1 4.02554 18.7105 44.2417
1 41.3206 51.4119 31.5663
1 51.1808 26.5489 10.4897
1 36.67 1.23114 29.5173
1 44.8611 11.7918 23.8639
1 51.447 47.9844 28.5381
1 26.6142 31.4348 34.8905
1 40.4618 24.688 32.6119
1 36.1496 11.1746 25.3431
1 37.1367 2.35866 27.3398
1 46.3193 3.2951 33.2527
1 2.87363 21.1961 25.3093
1 30.3269 41.6788 42.9902
1 42.6522 50.9347 29.7567
1 35.2536 52.1507 34.6566
1 46.8317 6.25252 27.2397
1 30.0582 22.9807 37.924
1 34.2187 43.0781 42.0558
1 38.4575 3.05696 39.1326
1 25.9886 43.725 28.7834
1 34.5631 44.7332 38.9519
1 10.3418 1.22232 11.9237
1 43.2691 48.6276 34.2621
1 7.01513 4.79153 22.0083
1 40.9195 7.35541 27.7273
1 33.7665 23.2446 27.9589
1 33.5034 7.65272 18.3267
1 41.262 2.24695 23.9352
1 35.3764 0.378262 4.87193
1 25.2475 3.75534 50.3197
1 38.8911 12.0064 19.5027
1 42.7182 9.75255 19.671
1 38.0165 34.0166 12.2463
1 37.4504 0.0407003 29.0844
1 11.614 2.22173 49.5896
1 17.8041 15.6047 33.5992
1 45.3811 49.6208 10.1985
1 13.7545 2.18793 22.8955
1 11.1466 29.6048 53.7728
1 18.0265 16.7863 22.8828
1 26.1137 38.1605 34.1639
1 14.1561 12.3401 40.2984
1 26.9289 50.8228 34.0814
1 36.9398 6.60538 21.7629
1 45.0761 0.235717 24.0025
1 39.4396 49.3867 35.3512
1 37.6606 3.15964 42.0099
1 10.69 27.1071 0.824246
1 11.7988 3.19425 21.5938
1 46.0044 2.23805 22.607
1 4.69893 5.44869 22.1092
1 31.4302 52.3592 37.941
1 17.8721 22.7552 4.79984
1 20.8758 1.47835 35.6323
1 24.1038 47.7454 20.3262
1 7.04327 5.17183 23.4424
1 26.4489 38.661 35.4146
1 7.58757 23.226 5.09079
1 32.0834 48.8163 39.6875
1 52.5491 35.2654 5.79511
1 32.9549 52.8416 36.0995
1 41.7028 43.0618 35.8683
1 41.9333 9.0507 25.4951
1 34.4781 34.2008 16.162
1 26.1487 34.84 30.3603
1 42.2747 41.8964 9.32342
1 21.0724 19.6274 46.9531
1 50.3491 7.40519 26.1357
1 35.5281 21.9806 44.5397
1 37.3246 50.7048 34.948
1 17.4111 33.8597 49.5399
1 25.4114 39.3795 30.5134
1 4.58305 19.1025 41.9358
1 26.1011 34.302 35.1735
1 32.2847 6.65059 26.4352
1 12.3657 17.1568 16.1199
1 49.7028 23.8194 38.4213
1 25.6691 40.7015 30.7193
1 38.8585 13.9554 6.43135
1 45.5175 47.388 9.21679
1 44.898 48.0718 32.484
1 38.0482 53.3679 31.0564
1 38.1481 5.60312 21.8048
1 13.4715 9.76825 44.2716
1 7.74623 1.96554 41.6833
1 38.8654 18.1676 53.3788
1 34.5521 0.852885 32.3838
1 40.2139 1.51828 39.4069
1 35.5562 44.4032 38.0222
1 42.298 53.6176 26.998
1 44.8172 28.1757 11.2617
1 25.7418 53.0009 34.0837
1 43.8686 43.4879 9.08576
1 32.753 48.5287 40.9954
1 40.5888 9.65242 11.2968
1 33.7957 45.915 38.6851
1 26.5236 3.15609 50.5556
1 46.5213 33.0752 7.98784
1 44.2978 17.8789 16.4091
1 42.9602 36.4034 2.67365
1 35.218 6.86993 34.4985
1 19.5764 52.7402 21.5277
1 12.8487 3.85103 44.5402
1 34.594 14.3234 52.4108
1 27.0162 42.2944 34.7346
1 15.699 7.59034 44.6833
1 15.8158 8.84512 43.8728
1 45.1809 53.2212 24.7898
1 26.2776 21.1128 35.8195
1 49.2395 29.195 8.32402
1 4.166 23.6934 8.86862
1 24.3088 48.3163 27.3577
1 43.6667 22.0819 15.2345
1 35.7809 8.95957 28.535
1 29.1245 49.9092 36.4055
1 33.2805 50.3334 44.2718
1 36.4042 51.4745 34.2954
1 30.6996 44.0522 0.727959
1 39.7378 10.6801 23.8979
1 32.3769 44.5275 40.3962
1 49.7311 28.1753 9.22749
1 39.0949 30.3618 13.2847
1 33.3052 5.7756 26.1898
1 51.0261 18.3529 15.5302
1 40.7588 49.2033 34.8926
1 38.6626 8.29582 27.3719
1 37.4385 4.33522 24.0157
1 23.378 52.5384 30.7234
1 44.3025 22.098 49.8861
1 54.0534 12.1761 19.4878
1 50.2235 0.91467 35.3593
1 38.0705 38.0127 10.6129
1 9.26276 3.11137 40.3051
1 22.9777 14.1118 26.8723
1 44.5933 44.8103 9.16806
1 36.322 9.34955 27.2911
1 51.8167 8.98555 9.26276
1 27.9594 5.13274 34.6647
1 44.0533 9.60262 24.9362
1 33.4767 44.0008 39.772
1 47.9831 31.1385 8.12229
1 18.8153 22.8524 48.3827
1 36.789 53.4454 51.6838
1 31.8607 34.5963 20.6034
1 41.7295 51.9532 29.2498
1 2.68737 6.81612 18.963
1 30.9585 53.0086 45.4152
1 37.327 11.3719 23.2495
1 36.3639 24.485 33.2688
1 32.7435 48.4741 38.2895
1 32.7315 42.5655 46.8214
1 49.4332 5.45493 10.9666
1 33.3571 53.7251 34.8362
1 3.44706 36.6674 14.8767
1 49.457 20.6372 14.831
1 11.9696 1.2837 15.8621
1 34.731 45.7897 46.299
1 13.0301 24.6452 52.888
1 40.8488 46.9476 36.4352
1 35.3755 4.92901 25.0694
1 31.5465 3.21283 33.2123
1 40.2315 12.8143 8.68512
1 4.32246 2.36004 36.125
1 32.4487 51.204 41.9711
1 11.2007 12.9478 43.2666
1 33.5447 1.44599 33.3622
1 12.0383 43.133 1.50634
1 36.3681 53.3711 32.5975
1 25.1442 48.0393 29.5198
1 42.1905 2.88878 23.1141
1 16.141 33.5571 50.2087
1 46.7229 24.2465 30.4867
1 44.4993 3.85122 21.5421
1 45.1827 53.188 42.5089
1 20.4627 10.1978 4.43499
1 45.0722 10.218 24.2212
1 42.1607 16.8374 18.0097
1 45.4822 7.06851 27.1234
1 26.1672 45.1859 29.1169
1 41.8226 44.3096 9.96706
1 43.1452 10.2197 11.8525
1 46.4993 26.2903 12.0351
1 8.69412 2.31993 42.888
1 41.8152 51.8566 48.1107
1 0.59693 2.52793 34.1737
1 27.3771 2.39919 46.8473
1 35.1512 50.1525 36.0734
1 42.3128 21.1092 17.4754
1 44.5325 44.0205 35.6681
1 40.5153 9.03735 26.1721
1 52.4557 4.61311 7.24643
1 23.3663 19.2245 43.9488
1 35.399 3.96784 26.1617
1 32.4854 43.0228 44.2095
1 34.5014 23.6242 37.6178
1 22.6401 48.6407 11.7741
1 53.1217 21.6044 13.2752
1 23.5743 47.0322 10.0447
1 33.0856 9.75004 32.1779
1 37.8568 24.6695 33.2087
1 31.9422 52.2209 45.2691
1 49.2263 3.45156 19.9644
1 40.3553 24.3042 16.8789
1 35.0518 4.10529 43.7405
1 40.9021 20.5201 18.185
1 40.2102 9.81728 19.6888
1 48.1256 8.38081 25.4179
1 26.5248 40.7882 49.3377
1 45.2514 20.0722 15.6761
1 1.47914 12.5834 0.458874
1 3.67658 4.95135 30.1599
1 23.8865 26.5076 40.1045
1 40.0494 15.6321 22.9386
1 44.823 16.9427 23.7677
1 43.1289 6.55221 28.3691
1 46.5069 1.91982 35.4306
1 36.555 48.9027 9.62952
1 31.094 0.334919 36.1105
1 45.8368 2.82958 34.4624
1 6.88903 24.5076 4.95527
1 34.0361 6.07089 42.5607
1 32.6066 7.76865 43.8461
1 34.8794 44.3729 48.5003
1 38.9972 5.26949 32.8079
1 41.7113 1.95245 37.3543
1 26.6889 40.8526 34.5352
1 36.9141 32.6412 13.9828
1 33.2773 21.7485 43.4839
1 40.6717 33.7467 9.76528
1 13.5304 36.0664 51.89
1 13.65 19.9104 1.32235
1 9.88147 46.0392 2.51769
1 7.56754 17.7505 15.6059
1 25.7105 36.1791 32.7347
1 15.4896 41.0323 0.41138
1 24.1089 4.31967 43.1179
1 28.7932 14.8374 33.0833
1 35.9464 5.97217 0.371257
1 27.1047 32.2496 27.5535
1 32.356 53.186 3.72639
1 22.2403 8.01738 38.3324
1 19.2314 5.13954 43.6089
1 27.6157 39.3809 40.4371
1 41.4665 48.0371 35.5598
1 35.4687 4.54762 53.9126
1 23.7747 7.43767 3.52634
1 47.5541 14.4588 6.65329
1 26.4718 27.1118 34.3603
1 5.06503 22.8123 9.67237
1 52.4067 23.8944 38.2703
1 44.0438 4.08325 32.7057
1 34.5085 49.0845 36.8899
1 22.4727 4.28244 49.4007
1 49.0705 9.90209 10.2553
1 5.34725 2.26791 37.1204
1 51.6974 21.5949 13.5946
1 42.7518 0.435386 24.8504
1 30.3675 54.1553 51.4229
1 31.6834 46.438 2.32884
1 21.759 4.62682 44.0433
1 26.0842 32.5508 31.4567
1 9.66827 5.80151 51.5511
1 38.5087 34.0167 10.8796
1 33.1029 2.97338 31.4368
1 10.244 39.5457 0.266459
1 17.5474 45.3229 6.45892
1 39.5075 51.3386 33.5996
1 41.7237 19.134 2.54055
1 32.4499 39.8513 50.2866
1 6.63958 5.87647 25.6114
1 35.1962 5.00566 4.0478
1 29.9783 0.792005 53.7795
1 40.3877 3.39148 36.0471
1 51.2941 51.4904 7.47157
1 37.0984 46.1849 36.808
1 47.5309 3.19699 32.8997
1 25.9206 42.8578 29.8498
1 31.6891 51.6128 43.102
1 16.0249 8.70757 2.5577
1 27.4513 39.8313 37.9027
1 35.5142 8.51666 1.41623
1 16.6962 28.933 50.1498
1 22.0648 50.1476 15.3819
1 14.1075 3.8564 51.8087
1 37.8493 16.1177 3.84248
1 31.0787 21.4455 42.4306
1 10.7621 5.44892 1.83647
1 28.8069 20.0896 27.365
1 44.8466 2.81835 22.7019
1 0.764151 5.50916 26.9198
1 35.9502 18.377 24.3956
1 24.2943 4.12659 51.184
1 27.4982 2.5667 49.6415
1 15.8543 30.0871 50.6587
1 46.2982 54.1464 38.5983
1 2.86299 22.5588 32.665
1 12.7097 30.8728 52.3994
1 25.3734 47.2124 24.9626
1 40.2663 48.7683 52.8078
1 28.0342 8.10691 31.7048
1 10.2015 2.79877 44.9806
1 29.5628 14.4327 45.6533
1 26.5857 12.0031 24.776
1 46.9231 4.20985 30.4959
1 42.4545 50.7542 31.2511
1 37.9737 43.9902 37.0947
1 33.7407 32.9719 18.0848
1 0.676219 1.3558 36.1549
1 34.0418 20.3042 45.4818
1 25.1326 3.24216 43.162
1 14.948 27.4421 51.2034
1 13.2411 4.11682 35.6812
1 32.7818 47.4753 6.76201
1 36.6736 3.70473 41.0925
1 48.1353 2.25601 33.7122
1 29.7633 12.8666 34.471
1 34.4462 10.682 53.9682
1 31.8678 47.409 37.7607
1 44.1496 19.1847 2.01996
1 50.3489 52.1536 8.353
1 33.7079 6.62097 41.4352
1 45.7561 53.9028 12.8062
1 45.2646 3.53876 32.2971
1 39.3483 17.8126 2.77413
1 33.0034 51.9568 4.63577
1 15.6414 32.4004 50.6426
1 42.9317 12.4965 18.9866
1 21.7811 4.63938 46.5858
1 2.01088 16.7866 48.0909
1 44.878 8.47252 12.4944
1 26.0959 40.8242 28.3838
1 52.4436 52.4889 21.0136
1 41.3422 16.2773 18.8818
1 9.52412 49.117 5.51265
1 42.6551 5.79998 29.6102
1 32.6283 7.63435 24.3363
1 32.0224 10.2821 33.1454
1 29.6682 18.3126 43.914
1 35.6593 46.6838 46.9461
1 32.4174 52.2931 51.3255
1 53.9512 1.91686 35.2384
1 0.195813 16.4669 18.0034
1 30.7306 10.9892 38.4743
1 12.9631 28.4309 52.7474
1 44.2996 51.4851 11.9137
1 37.4247 46.4923 10.2144
1 30.3398 44.2245 38.9429
1 50.8781 50.1685 26.8038
1 21.3877 21.1979 44.5279
1 46.1317 27.5023 11.0465
1 39.5393 47.7132 11.0512
1 12.4066 8.30364 2.89139
1 22.4287 29.8877 43.6009
1 39.9952 7.28652 12.1663
1 41.4333 1.16979 24.7649
1 39.0219 1.97677 40.0491
1 22.6945 8.42812 35.6597
1 26.7452 41.3642 53.5154
1 30.1269 44.5901 2.02817
1 23.2879 5.78867 1.30661
1 43.5853 50.2515 11.9242
1 51.8553 18.2312 54.0598
1 32.5563 51.5683 48.8321
1 42.5769 9.957 24.9694
1 36.2783 1.1598 30.8943
1 39.9821 13.766 7.44859
1 45.7037 4.26455 30.9889
1 31.4547 25.0096 22.8735
1 31.2756 42.496 49.2142
1 9.53998 50.3711 6.06332
1 5.81479 24.109 6.91836
1 6.08722 22.2624 8.79707
1 28.7017 3.55524 6.11496
1 34.8695 5.16638 47.6
1 50.4151 49.4807 7.07621
1 5.14694 46.766 1.17445
1 19.3507 7.50371 1.53444
1 44.982 5.24703 30.2912
1 39.4169 5.53955 31.6034
1 35.7768 4.62248 41.3306
1 13.423 1.20089 18.5571
1 17.7043 51.8396 12.4162
1 25.1099 5.72622 3.05843
1 34.3116 3.9324 27.3521
1 38.4656 52.159 32.9639
1 50.1306 48.5058 28.5913
1 46.5543 48.387 30.3765
1 37.2587 53.7244 11.1569
1 12.8103 18.7171 28.3104
1 42.9368 53.4026 25.6694
1 32.0716 46.9469 5.26766
1 8.34776 52.3138 6.74987
1 25.8261 3.75721 40.7519
1 43.8188 16.3022 6.31049
1 42.5666 49.5512 33.5863
1 25.5433 2.54491 44.3754
1 29.7414 15.7022 45.0391
1 41.972 26.5208 14.3185
1 10.8732 28.549 0.748271
1 43.4098 3.42798 33.814
1 26.8465 40.2277 35.772
1 44.2943 54.0398 12.6388
1 40.4214 22.9225 17.3609
1 43.8738 19.8587 0.847565
1 48.8381 46.8967 29.8566
1 53.42 14.9025 15.9873
1 32.2537 18.7616 46.3668
1 49.611 54.0574 10.1989
1 34.7001 43.6293 11.7987
1 33.2711 49.4351 37.2384
1 52.4039 0.308302 36.1613
1 42.5584 45.3975 35.7739
1 7.28986 0.965664 46.7933
1 21.8671 8.60439 36.9448
1 5.00894 19.7717 19.9803
1 0.273067 18.4453 49.1204
1 30.2979 49.6148 37.4078
1 41.5734 9.28514 33.3924
1 11.7045 16.7118 9.60843
1 25.7626 3.82844 52.7888
1 39.8973 2.8526 23.9234
1 26.2127 31.6143 32.6168
1 26.2833 42.4282 32.3008
1 1.25022 0.826064 38.2889
1 29.3962 1.81138 1.69954
1 33.9076 17.9181 48.7901
1 46.4327 6.1602 12.3347
1 46.4439 5.20492 28.2023
1 41.0554 17.7421 4.37343
1 29.6287 19.5649 42.9675
1 36.5019 3.16364 26.1558
1 35.6203 12.2151 1.18649
1 1.88645 5.3362 28.0364
1 52.0477 19.6233 50.6811
1 12.3968 3.20141 41.9182
1 27.807 48.4719 34.2307
