3987
Lattice="54.185901 0.0 0.0 0.0 54.185901 0.0 0.0 0.0 54.185901"
1 47.166 19.2173 1.87953
1 6.78949 6.66213 0.915577
1 23.8999 15.1872 18.2409
1 10.6171 18.9158 6.39059
1 11.5931 6.89901 1.11594
1 33.3091 17.4083 49.6507
1 23.8904 13.5114 19.68
1 2.6354 49.1457 1.62481
1 28.0463 37.858 23.8898
1 0.26315 12.1916 3.85947
1 1.12444 1.01361 17.3591
1 35.045 14.1121 0.630583
1 37.7141 54.2067 27.3641
1 3.50322 7.26954 10.4401
1 21.9114 12.8822 10.4783
1 5.54198 8.65332 54.1782
1 26.4724 3.81816 0.606885
1 4.90181 7.83667 6.77588
1 10.4692 3.02224 41.3172
1 28.5751 14.0299 41.5228
1 54.002 52.4798 4.19475
1 47.5904 25.7194 35.6019
1 31.5002 6.65266 20.2574
1 2.01844 54.2492 40.1859
1 6.4142 53.1579 5.87271
1 41.9224 29.5938 12.8156
1 39.7748 26.3465 40.6753
1 8.27266 49.2509 4.15441
1 4.93095 13.6144 9.95492
1 24.6132 10.3987 29.4635
1 6.51518 50.4056 2.67667
1 3.78514 7.00057 8.91854
1 19.6353 13.9564 10.4832
1 52.1531 33.61 7.94994
1 32.83 16.3433 48.8522
1 47.8333 16.3765 4.86117
1 33.9091 20.7803 47.3045
1 1.5114 52.9211 46.5734
1 40.3265 51.7967 13.3475
1 21.0971 14.9852 13.7277
1 22.7521 11.4255 8.7013
1 44.4137 13.566 9.45367
1 5.00597 48.5529 1.57925
1 32.2342 3.6174 26.6627
1 30.9631 41.5369 16.1504
1 31.9201 54.1407 48.9289
1 40.4384 22.6575 17.7511
1 24.5899 46.9297 10.0421
1 11.3008 2.35397 43.4533
1 23.0322 12.033 28.1155
1 31.664 32.396 20.5228
1 29.209 31.5456 25.0033
1 46.759 24.61 33.3243
1 27.0307 4.09988 3.81998
1 40.838 11.1948 10.1233
1 5.97514 15.7921 9.58464
1 52.71 51.3735 48.2055
1 50.2209 16.1423 4.34946
1 40.049 52.8017 51.2157
1 3.97738 15.4905 13.0153
1 11.048 38.6899 1.69846
1 2.93859 51.8782 53.7928
1 27.91 6.11209 11.1372
1 35.4168 45.7235 11.3356
1 51.6107 12.2623 7.04966
1 0.0354171 3.76741 6.73595
1 12.7423 18.5152 3.75022
1 23.9231 11.6029 10.5934
1 1.75926 22.9427 9.63439
1 27.6015 8.42365 23.9312
1 4.93101 14.4098 50.7188
1 27.9343 17.8579 30.6145
1 31.7877 40.6423 15.6309
1 46.6875 15.9129 5.52588
1 1.26831 6.60474 6.53448
1 19.8634 44.503 4.02908
1 28.5146 5.25536 8.42983
1 48.9736 17.9391 3.10301
1 38.5238 12.2172 7.48374
1 0.46386 1.93322 5.39111
1 24.9066 26.3614 34.5106
1 26.6026 9.83292 13.9579
1 30.8291 46.1992 9.49952
1 24.4113 2.30739 46.0165
1 34.0581 49.1038 7.58679
1 3.1342 5.94997 3.49038
1 7.94043 45.6715 2.43837
1 51.0106 23.7102 39.7462
1 29.8356 3.85644 6.92229
1 0.181742 11.2068 4.85098
1 16.7092 18.2298 24.8193
1 1.59814 49.5409 2.56418
1 48.1163 49.3008 50.0923
1 38.0641 51.9186 11.5092
1 35.0012 28.2369 10.2007
1 40.1055 30.5624 14.0636
1 46.8454 8.25415 18.0317
1 31.8525 2.11693 6.67847
1 38.7241 17.4738 4.12
1 8.82771 6.67684 3.80738
1 31.2332 10.921 44.2964
1 32.138 37.4039 17.7004
1 51.4676 52.4175 43.7214
1 5.73032 24.629 6.60287
1 39.8852 11.1121 9.19121
1 8.50898 2.73888 38.9973
1 19.9567 14.9518 11.5031
1 2.53189 0.749105 3.56943
1 1.77125 15.9165 14.1799
1 29.8202 32.3858 23.9814
1 39.349 40.1276 10.7598
1 3.08319 8.77529 10.4284
1 14.6497 51.6639 14.5731
1 7.59678 25.5546 5.37664
1 51.5114 15.4406 4.47018
1 13.5609 23.3652 1.05066
1 16.0913 4.83064 50.0625
1 11.083 24.2922 3.50615
1 53.3865 14.4423 3.29285
1 3.15398 20.1448 24.0039
1 21.9525 49.3609 13.6553
1 10.0762 5.25624 0.317272
1 18.9128 15.7939 12.0998
1 4.47879 9.54834 -0.0672191
1 37.2231 24.0873 45.4461
1 32.9823 14.3823 21.1282
1 10.3144 3.3258 37.3179
1 49.5159 47.6755 30.4727
1 8.80767 12.7865 6.77431
1 33.1315 34.5708 18.0083
1 13.2726 13.9509 5.55342
1 6.95865 7.90528 5.3364
1 2.04346 7.81329 5.40691
1 43.857 23.8952 45.1441
1 17.3618 53.6268 20.1025
1 3.77595 33.9855 3.70464
1 24.9326 7.46272 6.54374
1 7.40827 51.3294 4.7705
1 11.7577 16.993 13.5822
1 50.8373 9.89845 8.76071
1 4.85468 33.3075 24.4505
1 3.82886 26.0949 7.46855
1 14.282 18.5466 24.7059
1 6.31969 43.6137 2.0511
1 27.6481 3.27165 1.16477
1 33.232 13.3591 51.4757
1 17.7116 15.737 11.3788
1 4.90219 7.3649 1.99341
1 0.51406 52.9109 41.8377
1 15.7954 14.2126 8.23463
1 5.59047 53.7628 52.8397
1 1.9964 10.8812 11.5051
1 4.35358 50.9721 1.78724
1 31.5922 38.8171 17.6917
1 4.8397 5.09487 32.605
1 9.14069 14.108 7.2963
1 42.5768 4.00159 13.2723
1 16.5359 16.1253 12.2422
1 36.3067 22.2575 47.5158
1 43.8816 3.97611 13.8386
1 17.7911 16.8605 14.3859
1 3.68931 21.3917 39.8219
1 40.9332 51.9313 51.9428
1 24.8505 4.41984 53.0767
1 4.74419 1.0385 12.8124
1 51.6071 51.4756 22.6689
1 37.3439 13.1076 5.5786
1 8.23367 0.489787 16.4824
1 28.2668 6.85035 12.342
1 3.94214 9.95517 9.64461
1 43.8963 17.9776 4.03137
1 16.8252 52.1278 15.571
1 1.28 51.5628 51.6311
1 6.73375 0.965488 0.674775
1 7.26647 20.4801 26.3996
1 11.5742 16.5098 5.21919
1 11.3827 46.4971 4.97283
1 9.57274 26.8512 3.95727
1 1.58053 51.8808 1.19296
1 49.4725 12.211 9.2385
1 51.2248 50.2708 7.41064
1 50.3367 17.2418 3.18636
1 30.2205 22.9913 24.0643
1 35.1633 8.00639 2.69154
1 6.2052 4.48019 32.6696
1 28.4156 16.4002 30.784
1 34.8667 52.248 49.1575
1 23.0698 49.3756 18.1892
1 6.43322 9.72052 6.96698
1 49.8542 49.0342 53.6033
1 3.66969 23.7068 8.00485
1 33.9354 10.3993 27.9228
1 26.5388 10.3968 15.2001
1 50.8968 50.2415 49.5751
1 34.6277 11.528 1.54994
1 10.8329 19.8503 26.8799
1 45.0514 51.6142 26.1544
1 5.26822 53.8576 3.69783
1 4.6116 8.14556 8.08978
1 24.2333 28.1278 36.1649
1 48.7719 46.6181 31.3159
1 44.0799 8.01537 12.7621
1 13.1602 25.5041 -0.096811
1 6.18626 8.49038 6.3755
1 6.63898 3.70037 3.5922
1 18.046 15.4481 30.5688
1 48.4083 1.14183 33.3929
1 1.36476 13.0561 12.9438
1 4.90905 25.867 6.5259
1 47.259 25.1236 39.5665
1 11.8775 51.6262 12.2303
1 3.96599 49.6199 1.95443
1 28.3667 31.9827 26.1201
1 0.184301 6.83249 7.46291
1 31.2638 39.629 18.9508
1 35.3759 53.5569 5.97849
1 15.3028 9.71379 2.87172
1 36.8278 23.4474 18.6423
1 25.4272 11.7159 19.562
1 8.7863 52.7673 10.711
1 44.6941 50.9067 50.4435
1 33.3548 38.4781 14.4552
1 52.7523 16.4453 2.13657
1 10.1446 24.4595 4.55003
1 1.1044 22.0356 10.7474
1 7.3304 16.5878 9.96545
1 2.55928 20.9946 28.5563
1 12.7061 3.752 48.733
1 32.3267 23.9461 30.7722
1 11.274 22.4849 5.1105
1 9.94894 3.02914 51.5545
1 10.3255 51.2357 9.78524
1 16.0727 20.8567 50.8471
1 4.09552 14.1973 11.1092
1 47.109 49.99 50.8757
1 39.8918 51.8188 0.122097
1 46.444 49.4108 52.0212
1 3.25812 0.550231 2.35366
1 6.98588 17.8648 17.9545
1 28.8308 13.6195 42.8592
1 52.8726 50.4199 51.9397
1 33.8942 9.87832 49.253
1 2.70528 3.99193 13.3908
1 8.55365 1.2923 50.929
1 18.0917 11.5077 4.34841
1 8.48639 9.94622 5.56109
1 5.52342 5.82821 5.28739
1 26.4041 16.73 40.1716
1 51.5005 4.41964 28.7004
1 48.6866 51.9236 44.3052
1 48.8876 52.0639 42.7819
1 13.0642 19.1184 22.4901
1 47.3159 1.72486 29.1633
1 0.69867 4.87845 30.6242
1 8.42367 18.0075 18.3989
1 5.20291 21.8039 32.2161
1 6.76765 53.4838 9.37662
1 46.2043 18.5673 2.74801
1 14.2566 15.1406 38.9252
1 36.0737 13.7752 19.4688
1 45.062 17.1688 4.17528
1 20.4035 6.78666 54.2588
1 10.7483 21.0005 5.54545
1 36.1345 15.045 1.01553
1 28.3604 22.4367 28.5316
1 47.3912 35.5824 8.44648
1 20.2622 15.9041 14.2663
1 28.6578 6.02373 13.6177
1 21.0129 15.5163 22.0013
1 2.81578 2.53886 14.1551
1 46.9225 39.811 9.04996
1 14.5163 18.9973 21.8539
1 20.6465 13.0981 9.9431
1 10.6116 19.4639 23.8765
1 2.06521 18.2318 21.131
1 47.1894 10.0884 11.4862
1 24.3578 5.30957 1.06955
1 35.4745 37.7671 12.8691
1 50.3588 47.606 25.258
1 19.1156 16.3075 13.4427
1 53.5356 16.3319 1.00762
1 13.1826 17.1757 14.4298
1 26.7213 19.6561 31.478
1 17.8834 16.7535 28.3301
1 4.84162 1.45975 15.2188
1 48.794 6.69216 11.5695
1 11.4124 4.0803 27.1516
1 35.0749 47.5499 9.31115
1 26.6686 22.5537 31.8642
1 53.818 7.74851 21.6855
1 53.6475 52.697 44.6172
1 31.8048 5.21774 19.5308
1 18.0651 1.64381 28.458
1 15.6531 18.9644 22.7438
1 12.0029 2.4734 45.6908
1 23.1988 23.0743 43.3751
1 31.0993 5.00816 16.792
1 6.39978 20.7246 27.6248
1 23.7198 15.4269 16.4001
1 22.3755 15.499 19.7495
1 1.8901 8.51114 12.6821
1 12.4599 15.1948 5.51326
1 53.8803 7.06795 15.3593
1 24.2123 12.1423 12.083
1 44.7169 47.1122 11.7884
1 7.90165 52.8917 9.35382
1 16.9546 18.7486 21.9494
1 8.92527 -0.143891 15.3011
1 32.4572 11.4092 48.0171
1 4.16607 1.88941 13.8698
1 52.78 16.168 19.5124
1 11.3065 0.906743 21.7824
1 43.9337 1.54884 13.4665
1 50.6747 8.96347 16.1662
1 13.2869 31.3743 53.0653
1 19.2851 2.71121 32.681
1 18.4592 13.9874 32.4826
1 13.4383 3.73964 28.9613
1 15.5812 0.459756 21.3813
1 3.80728 19.9159 11.3066
1 11.4402 41.6584 1.11937
1 12.2633 34.0293 0.294748
1 5.43718 0.585339 42.3013
1 53.3477 0.326547 18.6124
1 41.6539 32.402 11.3497
1 16.5124 29.5557 50.0023
1 25.7048 48.7436 34.9624
1 8.57749 2.57605 19.9737
1 26.8745 18.0756 31.5822
1 47.8828 30.0888 10.7161
1 14.8874 35.4824 52.3018
1 30.6091 4.47949 28.309
1 43.1797 14.265 24.3953
1 3.36452 46.5254 0.915718
1 40.225 29.1007 14.6775
1 27.551 20.471 30.6476
1 25.6376 11.9682 17.0423
1 49.9496 16.7175 23.7494
1 34.8127 6.63675 2.27373
1 4.52992 19.4768 22.1802
1 2.62071 22.6233 31.9314
1 5.82627 1.76 39.2773
1 27.1395 40.2118 26.543
1 9.622 19.7725 29.1616
1 15.7366 1.31306 23.8858
1 39.0512 26.5535 34.8934
1 32.2209 4.17571 16.7954
1 25.3598 47.054 12.2838
1 21.0471 23.8244 44.5243
1 2.19636 21.6047 29.7608
1 19.2767 16.8651 16.4052
1 33.258 24.0519 29.8365
1 25.6204 4.70023 2.87841
1 20.5935 54.0201 23.8316
1 1.73144 22.2239 40.6974
1 48.1345 42.1345 8.92653
1 30.5813 10.4647 41.7458
1 33.9871 1.78192 27.4609
1 5.20471 4.48844 25.2117
1 4.25906 2.40561 16.2266
1 12.3195 6.76352 49.8241
1 7.26929 3.19397 20.5348
1 19.4398 15.5071 26.7662
1 7.59052 44.0889 2.27812
1 17.1076 13.1054 6.44592
1 36.1417 9.43041 5.90774
1 24.2409 11.2825 28.3607
1 32.3468 16.7186 25.6859
1 8.42947 20.3252 28.405
1 50.103 4.46378 29.1463
1 34.3722 47.4236 44.0671
1 16.2264 15.0845 9.32409
1 29.1413 17.8321 28.313
1 6.96104 4.25577 31.5348
1 45.4406 51.5229 46.6112
1 5.87996 2.95774 18.2625
1 16.7437 15.9764 32.5997
1 25.5509 11.3623 15.6611
1 7.8241 5.07091 27.9071
1 2.33827 23.077 37.0009
1 23.3183 28.3738 39.2438
1 3.12491 3.80159 12.0486
1 49.6037 42.6128 7.20018
1 19.1378 12.8105 32.9977
1 26.3788 23.9929 32.1545
1 16.588 16.6527 13.7575
1 4.33189 17.9825 12.595
1 50.9859 23.2169 47.8124
1 52.5264 5.92724 17.0197
1 31.458 3.6091 27.8495
1 7.71671 4.34992 25.7437
1 33.7192 7.74629 46.8368
1 14.3019 11.7307 4.60174
1 35.6463 34.1606 15.2345
1 12.7549 0.946913 21.4651
1 54.0252 9.5684 13.4871
1 36.9714 32.0005 15.6124
1 2.88697 11.9821 10.8662
1 3.91118 2.82478 11.1255
1 2.95205 31.9578 5.32226
1 15.4021 17.9965 28.3949
1 33.0644 7.12375 21.8201
1 8.396 0.793041 48.5697
1 26.1452 10.7732 20.5988
1 51.2439 16.9286 23.0561
1 4.51258 2.68409 8.74349
1 4.89462 20.1597 27.6366
1 26.1441 21.8119 32.9011
1 13.8456 7.88838 44.9886
1 31.7666 7.40747 21.3861
1 11.0488 25.5535 2.84271
1 4.6235 2.74685 17.6796
1 49.645 1.58921 20.5449
1 37.967 0.186317 49.3847
1 9.61037 6.3128 2.42504
1 10.5102 52.3176 12.3289
1 10.8903 34.0736 2.261
1 17.4533 0.703844 25.6412
1 26.5608 22.3962 42.0247
1 2.90397 21.8387 30.9443
1 4.79451 1.46113 5.45938
1 47.3566 19.3541 16.0755
1 20.1767 16.5362 19.8499
1 10.9185 18.369 37.6555
1 33.6676 53.6763 13.2374
1 0.587263 23.8562 33.0876
1 25.8979 3.61177 53.591
1 42.2615 51.7045 50.0436
1 31.5638 1.97018 8.00714
1 42.5002 43.4327 11.0257
1 1.71737 5.14074 19.4952
1 34.0778 25.0438 36.518
1 13.8472 15.3787 7.86612
1 0.500804 0.388692 18.2969
1 2.09996 20.2113 25.0158
1 27.5126 28.9576 27.763
1 13.892 4.29838 37.8783
1 48.9403 1.78947 32.3125
1 20.1174 16.4661 18.4212
1 29.1406 20.2208 27.3036
1 37.3516 48.8219 38.3747
1 8.61756 2.30988 42.9023
1 15.2805 14.1888 39.473
1 21.3613 16.1087 20.5127
1 12.9942 4.48521 31.47
1 8.82085 0.915307 17.6476
1 28.1887 23.0469 29.801
1 26.3324 2.40268 34.8751
1 23.1939 13.2808 12.4549
1 6.71387 0.382373 14.0048
1 35.5091 3.48587 52.3617
1 0.570514 53.2287 3.03126
1 53.8715 15.6594 17.3888
1 24.1421 27.2682 37.2118
1 8.04047 1.93349 18.5363
1 8.19347 2.71178 22.73
1 15.4526 18.1249 24.0359
1 23.8546 32.6043 38.8361
1 3.81115 9.53826 1.37904
1 1.26504 4.7912 18.2408
1 0.954219 4.03464 15.1505
1 31.0805 14.0565 28.8503
1 8.00854 53.897 14.1839
1 17.6933 16.9309 26.8174
1 5.52586 4.81626 26.5979
1 3.82582 11.4797 9.73791
1 13.2324 0.102591 20.4184
1 49.3157 13.0722 8.04544
1 29.1294 5.03995 10.8846
1 12.4952 17.2375 4.28394
1 13.7145 17.7996 33.4193
1 45.2783 1.79878 23.355
1 21.4089 13.8466 26.7402
1 14.1495 1.86398 27.2851
1 37.8986 18.0759 53.7664
1 8.20799 20.3479 34.1203
1 2.26476 4.783 21.589
1 6.13115 53.8718 10.6511
1 16.8846 28.3653 49.2573
1 25.9695 17.2774 36.4986
1 50.5222 13.3185 7.44551
1 42.5549 8.43012 12.3733
1 53.9289 17.5471 15.5981
1 44.8007 34.097 9.42934
1 3.35439 4.76971 9.74829
1 1.13074 26.4503 8.44439
1 27.2243 46.8956 10.2648
1 9.41389 19.0386 21.8054
1 34.2721 28.9868 19.0021
1 49.5235 2.80022 19.8343
1 21.6784 16.1702 16.3631
1 26.1604 45.3955 5.21579
1 28.6846 4.83112 7.07171
1 29.6091 21.2709 26.3086
1 41.3533 36.1127 9.24338
1 24.5241 46.0519 27.6041
1 42.7397 6.76008 19.8386
1 38.5335 21.6454 27.2501
1 4.66291 3.73165 5.23522
1 15.574 18.2521 26.9936
1 13.023 18.166 15.637
1 35.3229 35.3076 14.3788
1 27.4249 8.72883 13.6643
1 10.7158 37.3717 1.70967
1 6.87388 20.7911 33.6807
1 0.196475 4.71092 32.0577
1 28.6929 8.25734 17.3027
1 18.9479 16.8782 20.6076
1 17.3149 14.7417 34.6526
1 53.2652 50.6437 50.6931
1 4.3067 4.94974 27.3986
1 11.5396 16.7293 7.64897
1 38.1271 2.37242 24.3719
1 0.84454 15.371 15.2219
1 1.79975 27.369 7.7337
1 2.14304 7.05305 12.4237
1 2.79728 20.7141 10.5958
1 50.3506 2.29851 32.2461
1 27.7959 27.2792 27.7716
1 32.4457 2.40187 10.3673
1 53.1751 52.903 42.1144
1 17.5615 3.41788 34.3768
1 46.6587 8.1964 12.7347
1 32.8347 44.4367 49.3589
1 10.6744 1.21378 20.4381
1 50.4925 2.96798 18.8537
1 24.6919 5.17198 34.2079
1 29.6866 44.7111 14.4139
1 54.0218 4.61598 16.1104
1 30.326 10.6173 22.1708
1 3.06624 17.3484 19.3177
1 11.4434 19.0096 33.352
1 42.1275 46.4371 37.3009
1 8.14071 19.0812 39.0482
1 42.266 38.2502 9.19215
1 34.8608 33.8979 16.3844
1 29.2276 14.609 43.902
1 9.40778 1.7513 20.8571
1 13.1004 18.9372 26.9309
1 9.94339 5.03726 29.2249
1 11.2458 18.724 34.8296
1 49.8064 5.30311 18.3471
1 18.837 9.52604 2.29251
1 11.813 19.5306 24.5033
1 17.2582 2.73679 30.7306
1 25.4077 9.18456 29.2581
1 46.6738 48.4404 11.6825
1 24.7572 13.1829 17.1481
1 3.55429 3.78282 19.8277
1 6.27723 4.79496 30.0606
1 8.89657 19.9372 32.8919
1 25.4978 28.168 32.5462
1 53.2798 24.4473 36.8165
1 31.3241 2.59942 30.0004
1 8.36511 20.0292 23.9345
1 50.6086 19.8029 0.773299
1 12.3594 23.9181 1.71016
1 9.96614 7.14675 49.8297
1 22.1821 8.37045 34.548
1 26.9874 7.88011 27.5762
1 26.4476 54.1479 37.6052
1 0.183224 24.157 37.6611
1 7.17526 3.51198 21.9868
1 8.33799 20.0358 31.4959
1 5.64141 29.5086 5.06808
1 31.8525 36.72 18.8384
1 32.9355 1.80374 28.5467
1 10.7193 4.45422 32.0544
1 48.8885 10.9822 16.8999
1 37.1021 25.3599 43.2008
1 7.4111 18.9127 42.0066
1 51.2988 8.70518 21.8574
1 30.7078 0.0983709 34.307
1 8.66304 4.99018 30.2623
1 6.74123 0.471646 52.6579
1 26.3064 42.1113 25.0033
1 14.568 0.241478 20.4291
1 8.8021 3.12315 54.1098
1 0.839968 15.2213 53.9598
1 34.7731 25.0934 39.8262
1 14.4759 2.67531 28.4197
1 14.1683 15.9316 9.27585
1 8.01649 20.1927 36.4396
1 0.330248 21.4511 27.0274
1 9.68278 20.0349 26.1402
1 7.14414 20.2626 24.9065
1 20.947 11.006 33.0734
1 49.1385 24.6301 34.0542
1 4.56036 22.139 33.3613
1 52.3141 23.1343 41.8753
1 53.2715 22.2964 47.2635
1 50.0198 11.191 21.7856
1 6.87456 19.2607 39.1616
1 1.97433 17.1919 18.3882
1 17.2874 3.47194 31.9268
1 7.36584 16.6061 46.9716
1 15.1802 16.1934 34.8153
1 53.3462 28.0132 8.98945
1 5.16116 20.0462 40.9875
1 10.5987 19.4211 22.4459
1 1.10062 21.5618 45.6251
1 35.8158 27.0359 18.0444
1 38.2092 23.6396 46.4711
1 39.8985 11.7289 25.1268
1 20.7001 10.6593 34.3067
1 52.3536 52.9124 40.9812
1 19.5689 9.81787 36.8176
1 28.3098 24.6722 27.6772
1 2.35361 0.568344 38.856
1 50.2653 53.3836 38.9692
1 32.4515 35.5292 18.9537
1 24.5018 12.4135 20.4357
1 52.4051 4.13772 29.9289
1 3.36762 5.04365 11.4006
1 15.8032 3.7329 32.323
1 13.2296 6.13902 48.7816
1 2.5944 22.7764 38.298
1 15.2395 4.4238 41.3975
1 52.8618 24.4504 34.492
1 27.7675 19.9692 29.1102
1 51.1657 21.5107 28.1774
1 51.913 43.9418 4.52488
1 38.8368 38.7605 10.4738
1 22.2776 10.4299 32.4413
1 15.6471 17.567 15.7238
1 12.8399 17.1703 37.7683
1 9.28803 19.7769 30.6217
1 49.5612 22.5429 49.8472
1 25.3172 18.6981 39.1784
1 7.00712 1.52662 16.2472
1 14.0766 16.8305 37.2358
1 8.57277 19.4619 37.6882
1 53.1775 8.68687 20.6109
1 12.8371 18.9279 31.192
1 51.0876 45.7841 5.98205
1 6.91123 31.6646 4.00262
1 11.5913 2.20941 23.8693
1 15.2229 3.57981 33.6489
1 14.6158 19.3057 20.323
1 31.6326 44.16 12.9537
1 20.1514 2.17408 33.9017
1 11.7242 4.45973 30.916
1 45.0833 8.46652 26.1903
1 8.49841 1.9738 53.1822
1 24.9972 24.0504 35.8368
1 28.3952 18.5454 29.3157
1 41.8694 21.2221 51.293
1 14.5243 4.22608 40.2743
1 9.41943 5.08604 27.872
1 6.17407 53.9055 8.10557
1 14.3364 16.8252 35.6833
1 12.0634 4.03508 28.4419
1 11.0084 53.1665 14.3332
1 0.843146 53.6182 40.3753
1 0.92942 31.0056 6.81325
1 14.0628 18.4652 30.6146
1 51.6347 53.1685 38.5458
1 20.6318 15.0171 26.2935
1 52.5917 22.9566 43.292
1 52.1786 11.9061 18.3285
1 23.7858 10.2975 30.7059
1 -0.00150625 15.0533 0.809551
1 47.6833 5.33382 28.7606
1 28.5202 18.5939 44.4784
1 53.3806 52.2246 45.786
1 21.9958 3.01452 38.5371
1 11.0667 16.8636 39.8457
1 48.6225 3.35682 11.9755
1 6.19421 20.296 29.9575
1 13.2107 2.33794 26.4038
1 4.52509 21.5093 30.9508
1 13.0893 15.7287 39.6518
1 45.7292 22.2945 29.2167
1 21.893 21.0839 44.2939
1 18.8618 20.371 48.114
1 25.7053 42.6669 29.9258
1 4.55537 20.4425 42.2389
1 11.8974 2.91152 26.3584
1 15.5896 3.48158 36.0471
1 10.1308 19.5007 35.3125
1 19.7549 1.6588 31.7945
1 13.0774 18.9574 23.9986
1 24.2673 13.091 22.5332
1 31.5082 17.9147 47.6128
1 51.9767 49.8746 0.614553
1 0.722226 22.055 42.7403
1 7.59976 30.4561 4.14522
1 7.69632 12.81 48.3797
1 19.8671 16.1617 24.3016
1 0.893508 9.88404 4.69441
1 25.1786 46.8879 31.0421
1 16.1295 3.54384 34.809
1 34.9851 3.91631 2.3532
1 14.6737 4.78793 50.0569
1 53.407 49.1371 19.6123
1 49.4826 14.7244 22.4087
1 46.5432 52.8853 42.2459
1 9.32207 1.86042 22.244
1 31.0227 27.7512 22.6324
1 2.20924 21.802 43.3371
1 37.1302 25.3912 31.6903
1 20.728 29.2614 44.8903
1 47.9613 11.9517 17.1624
1 8.72777 32.987 2.88691
1 19.7825 2.92926 35.0011
1 51.0449 7.98122 10.4585
1 16.5025 10.3515 2.8973
1 20.6236 53.4592 22.5881
1 47.891 52.5279 41.78
1 14.2929 3.84303 36.5392
1 51.4619 22.8769 44.2094
1 30.8709 11.8825 22.5761
1 10.0807 18.0512 39.1501
1 1.43973 6.21561 13.6121
1 30.1448 51.9794 37.2687
1 3.24628 4.98127 26.3375
1 46.9996 42.5802 9.81289
1 12.525 8.96658 2.64687
1 27.0985 49.6027 36.5341
1 23.9829 53.7162 34.7753
1 48.4635 53.2432 40.5112
1 3.5277 1.26507 38.511
1 46.3782 5.75067 19.5719
1 9.61511 3.09509 24.882
1 1.60496 51.4543 53.9908
1 51.9028 45.3145 5.03797
1 17.9109 2.92864 33.0599
1 44.5387 5.50046 14.1051
1 29.889 14.4464 45.0909
1 0.202566 22.7818 30.7131
1 6.53423 20.4742 36.2865
1 51.9741 53.6272 37.1388
1 15.1083 28.1163 51.5618
1 9.74146 18.7803 36.9457
1 52.9393 53.4216 19.6009
1 13.5748 1.26607 22.6306
1 15.3851 28.083 13.033
1 49.2543 53.3594 37.9625
1 47.7734 53.4857 38.1638
1 50.659 23.3625 46.3431
1 9.43359 16.8475 8.23958
1 10.7774 18.7761 18.3486
1 49.5584 9.20832 23.4282
1 50.3837 23.9899 42.1324
1 11.8828 32.6387 0.394992
1 10.8863 19.7844 28.313
1 15.7122 15.1156 36.8353
1 13.7419 50.2565 11.2045
1 52.6764 53.3311 39.497
1 34.3516 37.3034 14.0703
1 2.14661 47.6556 1.22009
1 49.4588 45.4431 7.75655
1 26.3514 19.1054 33.9834
1 13.0535 16.761 9.77728
1 12.0425 19.1784 17.6932
1 26.9905 6.14826 6.20247
1 5.90909 20.267 38.6953
1 28.306 5.70888 28.6859
1 26.9591 1.57779 46.9359
1 47.4326 4.49989 29.8655
1 23.7293 10.3038 8.31782
1 42.5949 22.5295 49.479
1 6.62125 18.856 43.2505
1 47.1501 20.4218 0.77098
1 29.8729 12.5806 42.933
1 47.6384 8.88718 11.8719
1 16.4783 12.341 39.1537
1 2.32062 21.5334 44.8692
1 50.8378 52.8771 41.1945
1 5.51382 17.4445 11.6939
1 34.8575 20.275 48.2004
1 14.0264 3.69021 46.4879
1 1.43773 5.1918 24.3995
1 8.82286 8.00963 49.4792
1 23.1602 32.0218 40.0827
1 30.3881 9.32899 38.3951
1 8.73844 13.9089 46.3576
1 20.9358 26.6315 44.6917
1 50.5484 22.4607 30.6586
1 5.56617 11.6831 8.24321
1 28.955 16.27 43.465
1 35.6064 25.7004 33.6166
1 48.4984 42.9513 7.96962
1 22.8774 5.89004 53.6302
1 16.1718 15.3493 35.5776
1 27.1021 23.4516 41.171
1 16.5025 3.46347 37.0745
1 2.64532 23.3259 34.382
1 52.3189 15.253 3.20204
1 11.08 6.23277 0.0798448
1 3.61274 53.9216 43.7531
1 8.51333 18.2585 41.3325
1 10.2226 53.4473 15.6131
1 2.1867 19.352 48.553
1 49.7025 51.4876 45.1244
1 18.3056 40.5679 53.1887
1 15.9709 50.0651 12.3986
1 26.3611 43.6518 3.45252
1 25.8997 8.16327 30.2147
1 15.2914 5.99698 46.3823
1 27.0814 35.1194 27.4353
1 36.7888 2.51699 48.8893
1 7.20745 18.2995 44.3667
1 13.4462 8.36912 1.82928
1 39.3984 26.4311 39.2467
1 5.04789 3.07099 37.113
1 22.7995 11.8817 9.96299
1 24.6481 25.8555 37.0526
1 23.7363 34.739 42.685
1 6.05422 7.74674 1.11749
1 16.5327 5.36911 51.2282
1 17.1918 0.783045 24.2695
1 22.7087 6.86831 1.60782
1 25.4781 37.8202 44.4229
1 9.8892 14.9886 44.7803
1 7.43998 4.04524 24.3928
1 8.31304 4.05362 34.0421
1 15.5939 16.2983 33.2777
1 51.0179 49.6647 53.6019
1 18.8755 4.86784 50.4952
1 7.03107 13.9831 8.26402
1 47.2786 0.100577 35.9719
1 23.9624 27.2806 38.5638
1 10.9166 2.98439 50.385
1 0.244587 52.2374 46.7346
1 45.7861 25.9478 37.4246
1 2.91099 0.305711 41.2701
1 11.7627 17.7771 6.42575
1 22.7877 4.33632 51.8349
1 48.0269 24.3572 33.0932
1 2.50864 54.0627 42.7083
1 12.17 2.93523 47.8723
1 2.40451 52.4536 47.7603
1 5.10071 44.6452 1.91421
1 27.9076 5.01634 5.94263
1 17.434 6.69372 53.5228
1 37.4046 1.09582 48.3925
1 12.8142 40.338 40.747
1 9.1736 1.2411 49.7789
1 4.91042 12.334 9.31476
1 6.44713 19.0193 40.6698
1 52.4578 17.476 15.4877
1 8.45529 11.7097 48.3899
1 0.978458 48.1773 3.29266
1 33.9692 10.4261 51.5805
1 10.9696 5.45543 51.87
1 49.0497 48.5655 0.662978
1 5.70339 53.3624 45.8537
1 44.9652 23.1129 49.2643
1 50.457 14.3557 6.60053
1 46.916 21.7067 52.257
1 18.2673 12.456 5.62211
1 6.56152 17.6578 46.9599
1 6.70558 12.9875 49.3519
1 8.11063 3.09976 1.26319
1 40.7412 52.3965 53.3389
1 6.70543 3.77853 35.5017
1 17.9396 5.55784 43.2182
1 32.0053 11.6555 46.6117
1 45.3451 26.2128 38.7909
1 36.0659 42.0438 11.7259
1 3.52501 20.3109 46.548
1 15.1951 7.18297 0.0351261
1 21.1607 11.0833 6.61807
1 10.5751 10.1993 4.34654
1 6.74122 9.30866 50.6277
1 17.9681 17.8498 18.5472
1 24.3007 1.51634 40.9878
1 33.2514 24.2903 37.311
1 51.5692 21.4319 51.679
1 17.1486 4.11671 49.0033
1 1.09582 12.0558 2.80123
1 6.06763 3.28855 19.6821
1 2.66748 3.30354 35.3693
1 9.39728 10.971 5.28201
1 4.25203 53.5688 46.1799
1 45.9352 41.5628 9.98295
1 25.9155 22.008 34.4794
1 50.0895 50.1913 48.571
1 9.41674 1.76182 51.9459
1 50.7914 3.54575 10.68
1 5.35088 19.1189 45.8201
1 10.703 13.109 5.08478
1 12.8388 53.9943 17.9105
1 7.35026 20.6139 7.23183
1 9.11236 18.577 39.983
1 28.8004 27.6721 25.6319
1 32.6582 24.117 41.0842
1 49.3333 12.1008 22.702
1 43.6893 22.7659 48.7714
1 42.3315 9.74658 11.7263
1 14.985 1.0134 22.7013
1 14.0201 49.623 9.85252
1 15.1273 43.4745 2.82096
1 16.4706 9.98062 41.0563
1 16.9146 7.4582 42.0358
1 7.98574 8.72492 4.81261
1 6.62322 6.6587 4.72543
1 10.0166 15.7921 43.627
1 11.5517 3.8263 36.9143
1 26.3693 20.1328 32.8409
1 5.6079 18.4665 10.566
1 0.883936 52.8833 44.3182
1 7.53553 10.4233 6.5553
1 44.0051 15.7054 17.6958
1 13.3182 19.1313 18.361
1 34.8451 25.0357 42.3077
1 42.9701 50.3703 51.9156
1 38.8792 53.1606 11.5791
1 24.9203 5.75679 3.41795
1 5.4267 16.2227 10.9559
1 1.40476 4.75068 13.834
1 0.289752 23.2409 38.8842
1 17.4068 13.1853 36.759
1 6.58146 18.5558 45.8511
1 13.6207 44.6005 4.60733
1 15.4179 16.8904 14.5493
1 17.8085 32.3848 47.9274
1 18.243 8.51237 40.1021
1 42.4555 26.1823 35.5301
1 6.04449 15.1348 48.5098
1 7.2102 2.11482 1.47112
1 8.22782 17.1969 44.564
1 16.869 18.2568 17.5414
1 4.85668 0.448117 7.77193
1 10.8803 7.16049 2.27472
1 21.384 3.57443 45.919
1 28.7753 52.3902 41.7196
1 3.71994 22.0362 38.4814
1 15.7692 26.9299 50.8646
1 52.0417 21.6131 49.2848
1 34.6155 47.4726 48.5219
1 20.2002 10.4878 4.3981
1 14.5234 13.808 6.29648
1 35.4474 50.3447 50.9743
1 7.46818 4.729 2.95557
1 50.2298 43.5254 6.18979
1 7.62544 5.96393 4.02365
1 3.58902 13.0588 52.3279
1 51.3857 52.4869 7.01344
1 52.4155 13.3205 5.15584
1 47.105 52.1877 44.7131
1 33.6183 14.6599 50.6204
1 24.4656 34.7243 37.8394
1 38.1805 49.823 34.208
1 17.9102 3.32933 36.811
1 9.55931 18.7716 20.5048
1 5.77082 20.204 9.21824
1 4.07392 20.442 53.6308
1 4.28014 9.60036 8.19547
1 2.94213 21.8143 41.1103
1 36.721 19.6674 50.3126
1 12.3275 18.1859 35.491
1 8.37961 16.5851 45.8501
1 44.3766 23.3336 46.4958
1 5.49262 4.67602 4.52257
1 16.375 13.6752 38.7928
1 38.1805 22.8196 28.1666
1 32.3356 1.76392 9.15728
1 44.5423 13.9512 24.6134
1 7.52733 2.92937 37.8209
1 31.4909 46.4689 8.29832
1 52.4101 19.7317 53.5097
1 16.6963 11.3441 3.97163
1 21.6745 4.53345 38.5989
1 4.97879 20.6532 39.824
1 4.14861 17.3702 17.1549
1 23.5387 25.6396 40.3807
1 36.6634 2.91586 43.6562
1 39.0995 23.3185 29.1763
1 25.4924 41.1853 53.4697
1 9.56081 12.3353 5.56125
1 10.2204 9.42364 48.1475
1 5.43561 20.7805 37.3391
1 45.5937 30.3197 11.6999
1 50.3101 52.242 42.5946
1 34.6499 5.60339 45.8356
1 7.89327 13.9833 47.5389
1 29.4346 26.0649 35.7033
1 14.8671 14.7886 7.30768
1 22.9052 49.3545 24.0277
1 5.28555 11.8146 51.2858
1 3.19358 21.2468 42.4014
1 8.39914 0.60331 44.9887
1 35.8663 30.3476 17.2911
1 27.5586 9.74458 18.9252
1 9.26955 16.7986 43.4215
1 3.75724 44.2726 2.00001
1 46.9565 14.6102 24.1216
1 35.628 50.3021 8.73734
1 40.56 0.153821 12.5615
1 30.9106 3.40316 11.8176
1 33.0818 4.68691 19.0159
1 25.2433 2.43116 48.2753
1 29.3543 4.68664 13.3784
1 11.2338 7.40951 49.1674
1 44.2419 53.8491 36.4469
1 7.05415 22.0387 7.3706
1 21.203 38.8691 51.2576
1 29.5817 4.16238 12.0267
1 42.9623 22.8749 29.6069
1 18.7158 37.7585 50.8008
1 33.7596 9.3027 20.5536
1 30.9679 0.775008 48.0003
1 26.1752 8.58567 11.4772
1 27.33 1.75571 50.6779
1 18.4159 44.0701 3.9898
1 38.2699 36.0481 11.2053
1 14.478 18.4146 17.5315
1 0.122476 14.243 2.0023
1 38.951 36.2504 9.90094
1 12.0835 3.79768 50.1363
1 35.1303 48.9518 46.2244
1 51.659 17.3508 2.08131
1 33.8438 52.2669 4.44536
1 36.1752 21.0429 27.3024
1 47.9734 51.2474 46.775
1 34.9331 23.6262 44.4262
1 27.3929 1.73859 49.2846
1 19.7732 45.1781 6.4227
1 13.2211 12.8581 4.39572
1 34.4846 36.3747 14.9977
1 23.3826 47.7913 24.4194
1 48.9871 48.3408 25.6788
1 41.252 18.2315 2.92504
1 38.1503 25.6756 32.6862
1 30.326 7.3554 19.43
1 15.7244 20.5501 52.3032
1 4.66476 13.1357 51.4462
1 20.6134 43.6019 3.0701
1 27.1741 8.59025 25.2704
1 8.97481 28.014 3.95076
1 35.7824 9.43419 4.65309
1 35.5758 39.0874 12.4537
1 29.7456 13.4162 30.8449
1 24.8693 42.2618 1.34647
1 39.5239 18.1562 24.9785
1 6.38198 2.55728 2.73123
1 15.6526 12.101 4.53436
1 23.1304 41.6464 0.00907493
1 21.9593 44.8203 5.49108
1 30.0768 29.7137 23.8569
1 33.0596 1.0907 6.69639
1 -0.0932142 51.0927 3.65089
1 31.1692 0.246913 46.6782
1 47.2911 23.1786 48.887
1 53.3419 17.4241 54.1208
1 51.6117 18.7438 15.3504
1 17.1422 13.7108 7.62455
1 8.82726 39.2948 2.57865
1 4.0211 4.72852 28.7774
1 32.5515 52.1433 43.5615
1 8.63118 4.353 2.23287
1 6.74468 26.8402 5.20872
1 23.5643 49.3911 16.7604
1 43.4575 26.2286 36.519
1 30.2912 5.19309 15.7147
1 49.2771 46.8033 8.2889
1 0.601734 2.4662 34.229
1 29.5768 1.89848 2.52703
1 26.6356 24.6207 30.9074
1 32.8145 46.997 8.26451
1 18.5661 48.5716 10.5103
1 42.6687 50.4401 13.8117
1 4.47813 10.8129 53.297
1 20.183 31.5026 45.2777
1 2.77061 10.6987 1.54729
1 36.0176 47.9427 10.564
1 28.7272 0.660841 45.8096
1 35.5565 8.15859 4.07809
1 53.7628 17.5357 22.779
1 6.30797 42.1667 2.02712
1 21.4087 35.4882 46.9706
1 18.2946 38.7375 51.8223
1 36.4462 50.3067 9.84571
1 16.8654 39.9004 53.4744
1 1.78578 9.69598 3.55847
1 33.9905 26.5717 19.6363
1 28.2434 40.1879 22.3579
1 27.0478 44.3024 4.47232
1 12.8158 7.47293 1.00254
1 9.44282 34.1351 2.51601
1 4.97229 4.91943 29.8334
1 3.49443 12.0478 53.6414
1 36.5916 1.8888 45.7868
1 29.8966 42.975 17.5074
1 9.4809 19.934 24.6618
1 1.28963 3.86302 6.00327
1 20.4746 2.79323 39.0012
1 34.9002 41.6291 12.6491
1 31.3381 21.3008 22.737
1 47.3596 46.2833 30.9942
1 36.9282 23.3413 28.0088
1 50.6859 49.5706 50.8462
1 42.3725 19.0842 0.734413
1 2.43332 20.4697 47.564
1 28.345 43.5397 1.44448
1 51.3459 14.2368 5.26603
1 4.2959 4.95853 3.37045
1 37.8405 2.16027 9.04071
1 17.2227 16.3276 31.37
1 22.9378 24.4167 42.3481
1 18.4489 6.03127 52.6506
1 31.1924 37.3364 19.8869
1 6.95028 46.6014 2.10974
1 51.974 5.56359 9.83923
1 9.67113 11.6878 47.4781
1 44.5439 12.6214 10.65
1 2.93783 45.274 1.58651
1 28.211 46.4535 6.09281
1 34.5751 40.2101 12.8427
1 26.8159 9.71137 16.6136
1 3.0533 52.1905 50.0998
1 53.6807 45.9211 3.23051
1 22.7438 42.9656 2.23718
1 28.8212 2.73841 3.215
1 7.64851 39.9886 2.25209
1 31.7605 39.3872 16.3029
1 33.0105 8.7181 30.1791
1 52.3346 52.1896 21.8004
1 30.5713 3.26383 8.14711
1 51.0987 20.2349 53.7104
1 20.1245 42.6046 2.06807
1 28.7535 25.5336 26.7226
1 22.9704 13.877 21.7747
1 26.9125 45.6755 6.24327
1 25.8072 39.6125 49.6455
1 27.2776 7.95327 12.3564
1 51.9634 51.968 46.0004
1 11.4049 45.3815 4.16785
1 26.0771 47.35 14.7772
1 26.2624 45.9432 7.69921
1 27.5273 21.3411 42.8599
1 7.64086 41.2909 1.673
1 29.099 44.304 2.75346
1 28.6884 46.1745 8.51836
1 4.96298 19.5655 10.2722
1 24.9975 20.7827 40.5939
1 28.961 3.18955 4.74753
1 31.3347 30.1378 21.419
1 24.6585 33.9689 36.6683
1 18.784 16.8222 24.8712
1 26.2316 7.97268 10.2328
1 18.2762 45.3366 6.13853
1 42.3383 35.2519 8.92084
1 27.1325 43.2694 2.00816
1 21.8762 33.1254 43.4422
1 16.2191 44.5179 5.08188
1 3.32349 19.271 22.8765
1 0.897383 46.7843 2.857
1 4.40745 20.1516 24.8841
1 49.3163 15.5093 16.6555
1 24.7477 33.1287 34.0418
1 53.2901 13.3289 4.09768
1 33.2554 47.945 3.64524
1 48.8377 48.544 10.1083
1 31.9681 3.51793 12.7698
1 19.0264 18.0062 28.4723
1 11.0525 32.6948 1.60062
1 45.7849 46.0943 36.1578
1 9.67716 19.249 7.44667
1 22.6297 45.07 6.72883
1 14.309 17.7564 16.3971
1 37.5531 24.8251 30.199
1 20.7499 41.9987 0.911998
1 40.13 35.3756 9.56229
1 34.5076 52.3209 47.8911
1 3.46931 19.0202 12.5843
1 9.30096 31.6649 3.14452
1 12.4125 44.325 3.6122
1 6.27058 39.2939 2.55543
1 37.0837 0.775958 26.345
1 32.0657 43.7073 52.9214
1 33.0439 48.5648 5.02299
1 46.275 48.4582 47.854
1 51.8208 14.3121 18.0144
1 48.1771 2.19182 12.6983
1 32.5303 46.2771 1.44469
1 10.5459 17.7744 14.2513
1 50.7543 47.4775 6.34983
1 10.2068 43.9949 1.9653
1 4.58306 3.71087 21.9319
1 32.4758 45.4661 11.0472
1 9.10006 18.1512 7.9373
1 31.673 43.0619 13.8198
1 11.9918 23.377 3.02097
1 17.6147 44.4623 4.98874
1 45.8534 20.7578 0.395655
1 24.1981 44.3169 4.487
1 21.1667 9.56619 4.12559
1 30.9741 0.648239 50.9685
1 15.0138 21.3171 53.2598
1 31.1662 5.54881 18.223
1 49.3486 15.0296 6.51482
1 22.0976 42.2122 1.09669
1 28.181 29.861 26.9587
1 33.1565 49.2256 42.9915
1 30.6054 4.0844 9.30617
1 12.5659 43.5814 2.36932
1 13.7943 35.4988 53.3308
1 24.2539 47.7168 12.737
1 8.38772 10.5272 49.2898
1 19.9623 0.799965 29.3492
1 13.9009 43.1275 2.13919
1 39.0441 53.4283 48.7889
1 3.79208 35.3618 3.49365
1 32.9586 8.7748 31.6874
1 29.2159 30.2337 24.815
1 19.9943 48.2604 10.6938
1 8.33068 19.3898 22.6637
1 20.4306 44.5096 5.40955
1 7.06929 0.522244 44.0224
1 29.1268 46.2336 7.18166
1 25.0808 25.4426 35.7371
1 43.5799 26.5026 14.298
1 3.6008 28.4216 6.28649
1 6.11066 9.55639 51.8283
1 28.4013 44.9679 3.89971
1 9.10888 17.2117 13.6645
1 17.9321 42.0519 0.950598
1 17.0252 24.8423 49.8239
1 20.323 35.3395 47.7781
1 14.8725 25.491 52.4985
1 24.2776 37.1149 36.9355
1 14.5418 20.9871 0.393207
1 6.39783 11.8386 50.2994
1 9.21313 22.8013 6.48193
1 25.7536 38.155 42.1265
1 14.5236 38.1272 53.4512
1 15.0554 44.1382 4.16382
1 6.85306 54.2551 50.3236
1 30.4101 0.966924 0.3836
1 19.2556 0.896371 28.1675
1 15.7474 37.8027 52.7134
1 10.0094 23.2401 5.31105
1 2.45875 11.9681 0.644168
1 43.3525 53.1387 39.0822
1 20.322 41.3268 -0.129456
1 23.9868 45.6756 6.70511
1 46.6996 48.5691 26.9431
1 29.5561 41.2309 51.1876
1 2.69542 8.28923 3.46833
1 21.9342 43.7584 3.25026
1 28.0624 2.32789 53.2963
1 52.1782 4.54013 17.6733
1 13.1841 16.9712 11.2413
1 36.2705 52.6423 8.29125
1 20.8073 50.7435 18.3108
1 13.1993 39.7397 0.710647
1 2.84557 29.5481 6.22847
1 2.98127 25.007 7.8701
1 15.5333 40.3678 -0.120186
1 30.3306 4.23063 14.751
1 24.8965 43.7299 3.27724
1 47.9255 13.7238 8.0508
1 13.5926 28.9296 53.3539
1 42.8826 53.7294 36.7552
1 20.2261 45.8152 7.6071
1 24.374 30.5925 35.1361
1 4.1928 1.25881 11.3267
1 42.8511 51.9998 27.042
1 20.4175 47.1863 9.90237
1 13.7766 18.3564 2.8552
1 8.47744 37.9479 2.35892
1 53.273 23.5415 10.9409
1 21.1144 36.9056 49.6369
1 36.2379 2.06466 6.5247
1 4.45368 17.3964 18.5818
1 4.10598 8.38244 2.24739
1 32.5727 37.2442 16.4278
1 24.0759 42.7432 2.42844
1 25.5489 4.64554 1.48441
1 31.2266 45.9548 2.98931
1 42.5358 1.51173 13.1156
1 8.28832 14.7899 8.26926
1 30.5235 46.7573 7.03816
1 35.2307 51.4953 8.02263
1 7.70973 4.82248 29.3271
1 36.888 46.6832 44.442
1 6.17967 37.897 3.18718
1 33.9813 6.85007 45.7378
1 21.8334 46.956 9.65391
1 52.1336 10.6541 18.954
1 26.3087 15.3438 37.7389
1 53.2728 3.88117 32.36
1 21.8694 53.2391 24.5905
1 4.33874 1.61624 39.4885
1 46.5003 46.1862 10.5707
1 52.6449 3.53255 8.82375
1 22.4076 26.9318 42.4232
1 29.1094 43.0633 18.679
1 3.42379 20.5331 45.1921
1 25.1285 46.5892 19.7739
1 37.7917 46.08 43.6287
1 12.5417 3.88899 37.9017
1 20.4367 33.7042 45.5951
1 24.5601 45.293 25.4317
1 45.9796 36.1389 8.28822
1 21.7035 52.2236 21.9231
1 19.2659 52.2914 16.6743
1 48.0825 44.6287 10.0008
1 1.53061 33.8107 4.3588
1 51.9968 38.3219 5.81099
1 26.031 31.1384 30.4497
1 21.9496 50.2844 20.2541
1 25.8056 42.611 27.4883
1 32.5443 4.25734 40.9266
1 27.8779 13.322 34.1677
1 13.2514 19.1974 19.6764
1 18.2653 29.9443 47.8193
1 14.2152 16.8235 12.249
1 32.6601 12.9983 27.0391
1 37.9257 51.2967 30.9649
1 8.40938 5.45568 52.9373
1 26.7433 46.6866 15.8922
1 14.0693 5.79656 52.1173
1 2.72091 5.21178 32.6733
1 0.962369 33.3298 5.70661
1 31.831 12.0164 28.1119
1 25.0975 44.0101 25.6842
1 15.8065 45.3039 6.13225
1 27.119 31.5224 28.2709
1 12.8389 41.0451 1.32427
1 44.7361 35.5363 8.80664
1 29.0756 8.41637 21.2981
1 28.2464 51.0246 39.5858
1 32.0976 22.2881 21.9556
1 53.7489 5.11535 25.8109
1 26.5675 47.0877 13.3341
1 5.50285 26.9947 5.83621
1 29.6457 40.643 49.7444
1 24.2835 13.2285 14.6984
1 19.1192 27.5905 46.2626
1 49.9678 33.6431 8.72252
1 29.4862 35.9595 23.0868
1 44.9229 20.7173 27.6868
1 26.524 38.0798 27.395
1 33.2015 1.2213 29.8076
1 43.1971 17.8094 25.7152
1 51.5593 14.3462 20.3931
1 24.2953 9.51965 31.666
1 26.2406 42.1066 1.29471
1 50.5863 24.3783 33.7248
1 24.6641 46.8187 28.4798
1 42.3257 24.5374 32.0061
1 28.2661 41.568 53.5765
1 27.5747 41.3734 23.0376
1 27.6634 46.0651 13.2491
1 22.4805 25.5706 43.0674
1 4.39973 22.1801 35.9926
1 13.3808 9.12758 45.3526
1 23.785 24.5211 41.1661
1 28.8663 23.381 27.6747
1 47.015 38.5891 8.18135
1 25.2845 47.6945 17.5893
1 3.33761 53.3174 45.0554
1 23.3951 12.4876 26.7219
1 28.3476 36.3141 23.9412
1 20.3308 3.52275 37.2383
1 6.11472 1.12713 15.1255
1 21.9745 28.3528 42.938
1 26.2809 40.4753 28.8665
1 46.6973 28.1341 12.0548
1 26.9326 10.4056 17.888
1 15.3914 4.59676 42.569
1 47.4552 13.369 23.2827
1 31.2982 15.423 46.9123
1 30.3706 24.5015 39.8677
1 12.7787 18.6107 32.7476
1 51.4749 22.7758 12.509
1 42.795 48.3032 12.6984
1 47.552 23.1291 12.7225
1 49.8572 8.1623 24.3981
1 20.1215 36.0222 48.9571
1 16.9855 38.7318 52.4721
1 26.787 45.7592 18.3008
1 34.9654 51.2309 6.67999
1 35.5643 21.1772 19.3353
1 18.7125 32.3637 46.7987
1 24.087 12.5538 23.9299
1 41.245 16.1218 24.6372
1 50.4465 35.0741 8.20148
1 19.2409 54.0341 24.4537
1 23.2636 36.1757 45.3493
1 21.8482 46.0302 7.36094
1 43.4698 36.0503 8.90784
1 50.5418 37.2304 7.1785
1 2.36544 37.3086 3.36353
1 28.3763 44.1106 19.1745
1 21.8569 53.0914 26.1996
1 32.7754 54.2937 3.08086
1 5.70531 18.3863 20.3912
1 14.6962 23.8786 53.087
1 51.4206 41.5518 5.14361
1 33.2754 50.0276 44.2494
1 43.559 23.7524 15.4806
1 25.703 46.9461 10.8333
1 22.3398 51.8489 26.589
1 30.7494 32.8572 21.7039
1 28.2572 46.1826 15.758
1 50.1413 29.9584 10.0952
1 26.46 39.6745 27.6341
1 47.5024 8.40317 25.3917
1 46.9583 43.9305 10.1005
1 9.2794 16.8635 12.2824
1 18.8187 3.52298 38.9712
1 5.31053 1.89906 3.04693
1 26.7858 2.74584 52.9028
1 51.6219 27.2043 10.6453
1 2.58045 4.76573 28.9781
1 33.0082 48.8164 2.56471
1 12.3576 52.5153 14.2391
1 26.9249 15.4296 35.1004
1 37.811 30.9082 15.2219
1 28.7653 11.5217 35.5663
1 22.4156 36.4707 47.6206
1 1.63939 25.1016 8.54111
1 24.7703 30.0944 33.9151
1 24.3616 36.6004 44.3627
1 31.2191 1.173 4.34474
1 14.8521 1.35799 24.9643
1 24.7872 23.776 38.4394
1 24.1501 46.9311 23.4026
1 20.6451 9.03948 36.185
1 20.4615 12.4141 30.984
1 46.8027 11.8457 1.06407
1 53.825 31.6322 7.39377
1 43.8768 32.1256 10.5415
1 26.3817 45.6717 19.5823
1 22.4228 46.2975 8.63719
1 12.4368 9.10762 46.3691
1 7.76982 3.56632 36.4913
1 28.1688 35.5769 25.1949
1 39.3078 20.9885 50.6434
1 29.3246 23.025 42.0623
1 43.0291 14.562 17.765
1 51.8618 36.9762 6.44943
1 5.02753 41.4385 2.11564
1 53.0919 7.0028 22.6686
1 38.5175 54.1946 46.4919
1 30.0507 12.1815 31.316
1 26.2192 25.9948 31.0558
1 12.3545 27.589 1.12603
1 33.0958 45.8586 52.9156
1 47.4751 33.9061 8.86587
1 22.606 13.1453 24.617
1 39.2661 33.8888 11.2773
1 32.6437 10.5773 28.277
1 24.8582 14.0692 18.515
1 35.482 25.5655 38.6602
1 22.5289 40.9755 53.017
1 8.36163 47.9846 3.64669
1 36.7743 27.8683 17.0342
1 47.4831 51.8185 25.075
1 25.2405 42.4028 32.4656
1 28.8733 53.714 35.5078
1 6.8055 17.9958 9.68209
1 45.8823 46.8228 29.0203
1 32.2411 33.5828 19.8528
1 27.3593 10.1711 20.4029
1 27.3386 37.6114 26.3663
1 33.5294 29.3718 20.1479
1 47.905 2.49814 31.4929
1 35.0839 4.47305 23.3054
1 27.8484 45.0549 18.0575
1 51.0538 1.77233 9.03854
1 33.6457 47.0802 53.4297
1 46.0104 11.3567 0.158173
1 53.8737 24.2135 9.97334
1 23.1674 49.2129 14.3836
1 29.5624 42.0084 19.6748
1 9.28709 4.45812 32.7085
1 18.5719 14.2901 9.61601
1 22.3301 37.0247 48.86
1 45.9603 37.5986 8.19212
1 29.9452 39.2415 21.0669
1 36.4621 9.51722 19.8488
1 42.3195 25.9725 15.161
1 52.3528 19.9811 14.8865
1 22.6076 49.6879 15.7387
1 25.9187 43.6534 23.3131
1 25.7603 38.9683 41.0687
1 43.4824 37.4573 8.94493
1 51.4026 31.6863 9.29135
1 48.6649 33.1694 9.03995
1 24.5405 45.6043 23.9632
1 37.0055 40.9335 11.5312
1 48.1237 53.8345 12.2109
1 25.8598 40.9391 39.761
1 7.06033 18.7751 22.1471
1 21.948 22.6246 44.3979
1 29.9516 43.7528 15.3724
1 16.9539 46.2646 8.16715
1 27.3231 39.728 25.1972
1 39.1791 50.7508 30.273
1 27.7983 42.155 40.8497
1 1.93907 18.9072 22.4523
1 0.511403 2.228 16.5817
1 43.7703 33.454 9.88975
1 35.0558 4.78507 52.8743
1 31.889 34.8212 20.0304
1 30.3652 40.9006 19.0437
1 22.255 12.6992 29.1381
1 18.7326 16.4852 26.1549
1 29.474 44.075 16.6255
1 49.7244 36.2009 7.79957
1 29.3229 46.3871 9.79226
1 8.90735 25.4767 4.55482
1 44.4751 20.9827 52.3331
1 17.8766 5.0991 51.6095
1 21.0034 53.9404 30.9708
1 10.0302 52.2019 10.869
1 39.7375 42.5112 10.8116
1 28.127 16.3142 42.304
1 5.10506 52.7745 48.119
1 19.2069 8.44871 39.0991
1 29.4624 11.0955 34.1052
1 14.5568 45.5967 6.90443
1 42.3568 24.6995 15.7293
1 36.1953 12.3631 19.5023
1 22.6722 49.8025 25.4202
1 0.900881 5.41552 25.7414
1 11.8934 19.4439 21.7361
1 30.0206 45.8636 11.9929
1 49.3749 21.8249 13.0958
1 35.8137 17.7223 52.2882
1 42.6541 15.5239 24.8551
1 3.97324 5.64888 8.83417
1 19.1663 29.9664 46.6253
1 39.2618 32.6941 12.1998
1 24.0223 47.3199 22.0416
1 38.5052 41.3387 11.1475
1 25.98 46.2577 35.829
1 16.3647 42.1586 1.18951
1 28.903 41.7991 20.8551
1 26.3162 19.6119 35.654
1 27.4088 39.9644 44.9729
1 26.9112 48.2333 37.0305
1 7.33396 54.1084 48.9272
1 51.6466 4.25044 9.62885
1 26.2849 41.6198 26.4287
1 0.909691 8.97636 5.66865
1 19.9079 16.0651 22.741
1 0.72199 51.0862 52.8083
1 0.820492 17.1282 19.1607
1 15.9048 2.85092 28.8817
1 23.4136 49.1468 26.5793
1 3.55922 3.59347 18.3336
1 48.4678 3.60763 30.6989
1 35.937 21.1501 48.4452
1 35.9547 52.769 30.8086
1 17.7589 31.0956 48.5681
1 32.331 43.1776 48.61
1 24.1482 6.41894 34.4111
1 48.8186 44.461 8.46974
1 38.7831 52.4091 28.5642
1 43.7819 5.33548 30.0557
1 38.9122 6.10786 29.9652
1 15.6945 36.5954 51.9224
1 25.6501 0.863879 41.024
1 24.0444 34.6282 40.2392
1 32.7252 9.32834 45.5838
1 24.1273 33.8314 39.0351
1 50.0548 31.354 9.71893
1 35.4339 50.9995 49.5388
1 1.8379 4.8496 26.6073
1 34.4188 3.0667 17.5715
1 23.7689 33.9902 41.5534
1 51.1541 1.79093 33.1972
1 21.4027 34.9934 45.6689
1 25.4775 36.8738 39.4322
1 13.6814 12.3454 42.5748
1 12.1936 18.1195 37.0698
1 31.4154 12.9037 46.3044
1 25.8765 18.8493 36.7961
1 14.2779 18.597 29.1437
1 30.6002 12.2189 44.1376
1 12.2583 11.3061 44.3005
1 10.2819 19.5569 32.6353
1 35.5863 4.45401 35.5544
1 53.418 -0.212621 37.0282
1 20.757 15.1685 24.8649
1 16.3938 28.945 12.4736
1 10.7021 16.9221 41.4602
1 18.2734 2.37814 29.6254
1 28.4172 23.7968 41.2951
1 26.7882 1.06099 35.2739
1 53.3916 35.0614 6.01013
1 34.0171 46.4225 49.3242
1 37.642 52.9225 29.1311
1 50.3752 7.71066 45.6742
1 50.9912 43.1268 5.14914
1 5.87735 53.9174 44.3837
1 34.2385 16.8178 50.6075
1 15.8175 19.3543 52.7386
1 51.9439 48.2328 6.0812
1 25.5671 30.438 31.5485
1 29.198 8.00321 19.8425
1 29.2436 17.384 44.4492
1 22.6142 10.9257 31.0425
1 16.4499 14.0025 37.3112
1 17.0667 8.78244 1.07731
1 25.7498 10.9406 22.0244
1 31.8769 47.3498 40.8778
1 25.3308 23.5134 34.4538
1 38.0985 1.27292 25.3033
1 25.1325 8.39769 31.4554
1 43.9334 53.1383 13.025
1 34.5882 0.293882 12.5663
1 53.9407 9.16303 6.87828
1 4.82794 53.2876 51.6865
1 37.9128 24.7138 44.1412
1 53.8735 8.10931 7.61934
1 38.8899 24.1957 30.2898
1 1.80605 14.1207 53.8282
1 34.7356 49.1284 50.439
1 27.6564 15.0708 41.5421
1 15.4781 31.98 51.5371
1 6.84826 53.9376 11.805
1 10.0829 1.58319 47.0925
1 13.8115 32.8667 52.8418
1 33.2957 10.1827 48.0042
1 14.3068 10.0461 43.3783
1 26.5598 35.8102 28.6373
1 26.8213 39.4847 47.6149
1 19.265 52.5303 19.078
1 12.9077 14.5191 41.8576
1 47.2381 47.5969 47.8098
1 18.7166 53.382 20.1804
1 51.7215 10.7178 7.58779
1 18.8182 14.5655 31.2749
1 16.5926 17.549 29.1669
1 25.5394 43.1755 24.6789
1 34.4806 51.0519 36.1142
1 22.0083 14.3654 24.2405
1 0.871239 5.99028 23.5153
1 37.058 1.33407 41.6958
1 40.4646 22.8471 29.4093
1 40.1679 26.4216 36.9441
1 24.0467 48.1208 28.795
1 27.5562 52.4416 39.1631
1 4.36286 4.37358 31.1637
1 28.5876 7.3878 23.8475
1 26.2425 47.6998 35.8209
1 36.8244 25.8653 40.7946
1 24.2014 21.8361 43.0879
1 39.1996 25.404 44.2054
1 39.3721 43.9632 11.3165
1 36.9821 18.9917 19.0791
1 40.5205 47.093 12.3686
1 26.3579 33.4719 29.5399
1 44.4484 48.6268 28.253
1 14.1457 10.5761 3.4409
1 2.13024 19.2194 13.1849
1 29.3109 41.7812 44.7435
1 13.9291 13.4177 41.7128
1 26.863 6.99802 29.874
1 34.1388 7.88223 50.6282
1 20.7139 0.673963 31.9566
1 13.7619 30.2326 52.7101
1 4.70539 53.9099 0.0120367
1 16.0178 5.56825 44.9676
1 26.8085 42.0683 39.7504
1 24.8217 36.8609 41.8001
1 31.0126 21.5129 43.9556
1 30.8412 13.1735 44.9677
1 34.3337 53.006 32.6946
1 21.1596 51.2311 21.0857
1 30.7875 38.7809 20.1224
1 20.8952 32.7346 44.6259
1 26.6846 26.9739 30.1664
1 47.7767 25.8625 12.4445
1 2.89534 4.72751 23.9716
1 25.3396 18.659 41.485
1 5.35007 17.6663 16.0973
1 30.7245 23.2455 41.9346
1 44.1666 45.7503 12.0138
1 5.38823 17.4034 47.9027
1 52.4602 17.7823 23.4921
1 43.7186 52.2416 26.0023
1 10.6354 2.17552 45.8644
1 26.1221 37.255 28.5434
1 11.0801 15.776 42.5997
1 43.2947 21.8909 28.7431
1 51.4451 6.64601 16.6095
1 45.0545 46.5842 30.209
1 11.9078 19.2441 26.3089
1 21.1329 54.2709 29.6548
1 35.009 11.6125 20.0869
1 42.8824 31.6495 11.5833
1 53.3847 19.748 52.3578
1 49.2638 16.4081 5.58062
1 16.4911 32.1355 50.5226
1 16.5943 27.8606 13.459
1 6.50669 17.2211 13.8652
1 2.96019 2.78458 15.595
1 7.55985 33.0498 3.67554
1 25.0455 11.8464 24.8303
1 36.1147 35.3117 13.2872
1 15.1172 4.92025 47.3255
1 24.7816 36.2986 38.0703
1 28.3647 40.2014 49.3085
1 24.7643 46.2468 21.1559
1 12.6525 15.0699 40.5529
1 32.9004 11.5025 20.9889
1 29.9257 1.28703 48.8616
1 1.69188 21.1428 27.3109
1 15.0236 4.16166 38.8973
1 18.4722 3.41154 35.3649
1 46.9462 12.44 9.79814
1 14.3128 11.103 42.3278
1 51.2884 53.5546 36.022
1 8.60437 20.3962 27.1158
1 21.1183 4.43362 41.0246
1 54.015 29.1853 8.32004
1 11.859 14.4777 42.7727
1 5.66937 52.4674 3.50523
1 22.6675 19.9901 43.7348
1 25.5571 1.48937 43.6953
1 29.7075 21.0798 43.8314
1 25.9742 17.4334 39.0294
1 48.932 -0.168116 22.5302
1 14.9682 18.6831 53.8133
1 21.203 0.397055 33.2619
1 31.566 14.1437 47.351
1 14.7061 15.6899 37.7018
1 7.07037 10.5489 49.9261
1 51.9626 22.2184 30.1929
1 22.9503 14.3654 20.3953
1 24.6288 4.35298 35.3129
1 40.5853 0.496317 36.4191
1 39.0152 27.218 16.1158
1 13.6047 17.9065 34.8588
1 16.6281 30.9954 49.5217
1 27.121 17.3081 42.3721
1 48.9399 52.9292 11.1474
1 1.22288 4.62964 33.0105
1 20.7841 48.8669 11.4118
1 27.031 15.5432 40.2876
1 27.3371 35.9333 26.3032
1 15.1856 17.8046 31.1556
1 19.3856 31.3314 46.3479
1 33.39 30.9669 19.8012
1 27.8875 4.35883 32.2234
1 52.1763 25.8869 10.3544
1 0.174929 18.4657 52.0737
1 19.7203 0.32226 27.0055
1 35.8843 3.22708 45.9288
1 53.8894 33.6811 6.13225
1 15.1415 0.968407 26.3022
1 27.6758 21.9426 30.8467
1 26.1793 8.84027 27.9001
1 7.65769 35.9297 3.04278
1 25.2631 48.0174 33.6865
1 53.354 11.2193 5.79364
1 35.151 5.30134 47.0542
1 0.224874 18.5661 14.6299
1 29.8578 34.6674 23.0043
1 25.3332 44.8147 23.0123
1 44.444 46.3463 36.8199
1 25.3372 7.55497 32.664
1 36.5967 4.58277 6.17282
1 20.2184 50.2148 12.314
1 25.2233 37.8208 32.1637
1 15.0778 53.8647 19.2003
1 22.6048 38.9831 51.1872
1 8.36802 4.64895 31.6582
1 30.8771 45.06 42.4611
1 15.5026 22.6993 52.7983
1 27.9112 40.1685 47.7303
1 24.2078 36.2267 42.9398
1 26.0041 0.485261 42.5351
1 30.8835 46.1806 4.63448
1 28.9433 43.0812 41.2545
1 32.6063 42.2189 13.6379
1 13.0879 6.95069 47.5103
1 34.1907 47.9766 52.5486
1 8.96312 30.3852 3.86643
1 5.33118 10.704 52.2135
1 38.7298 8.16039 28.3332
1 7.30761 6.1186 53.7762
1 9.90711 12.9458 46.5247
1 38.9594 19.3855 25.7315
1 5.17882 16.2161 48.7835
1 32.4318 47.0924 42.2802
1 34.8191 5.63258 37.6869
1 37.6001 54.1542 9.54801
1 53.6108 6.69559 23.9195
1 20.0815 51.3186 19.6589
1 38.9246 8.91829 10.1077
1 4.68289 6.32354 6.4372
1 45.8537 12.1908 10.8144
1 53.0319 22.8588 30.9311
1 46.9728 9.56288 17.3515
1 10.6923 12.5436 45.4583
1 32.463 44.5042 46.5679
1 25.5963 24.3193 33.2599
1 9.54979 17.5796 42.1129
1 19.3955 33.548 46.3265
1 33.3774 45.7553 51.5465
1 2.96267 15.159 51.599
1 42.7165 16.6115 5.60207
1 17.9104 49.3841 11.3777
1 28.5598 1.28088 48.4305
1 23.199 39.9634 52.0503
1 0.168107 17.4192 53.1438
1 30.5923 46.6622 40.8631
1 49.2776 19.8884 1.08228
1 4.27023 18.3366 47.8371
1 49.1563 0.544393 34.5978
1 35.9557 3.41468 50.9006
1 1.73071 0.348844 37.5691
1 9.00206 35.612 2.69551
1 5.65529 53.1109 50.4809
1 10.5422 19.527 31.1289
1 7.84075 8.16434 50.6153
1 25.141 21.4372 39.3093
1 26.6563 1.61837 44.7123
1 25.5151 38.883 48.3532
1 35.4988 4.62435 38.3404
1 2.64152 15.0898 13.3774
1 31.6559 46.0072 43.0947
1 23.6324 1.37012 15.6274
1 24.4827 40.1864 51.4667
1 24.6978 11.9918 21.8013
1 33.1011 2.65081 12.5927
1 35.9786 11.2197 26.486
1 33.6024 51.8828 45.911
1 28.1968 54.0626 43.541
1 18.1146 36.5654 50.233
1 19.2008 39.5964 52.526
1 37.4061 19.4384 51.6439
1 52.1313 30.5072 8.99564
1 52.6441 1.50038 18.171
1 24.5619 36.0795 40.4727
1 4.93916 28.3773 5.78873
1 32.8569 44.6653 50.6565
1 25.4953 21.0814 37.9894
1 3.9844 3.55956 34.8616
1 46.025 16.6881 17.1743
1 11.1247 8.43747 48.1591
1 51.7136 18.4915 1.19262
1 5.16401 0.617183 10.2897
1 14.2453 17.2391 13.6515
1 53.0428 9.91968 18.5788
1 23.5793 38.6652 50.1596
1 24.7501 39.3736 50.3727
1 50.9991 2.8812 30.8331
1 34.8753 48.9222 8.85313
1 34.9378 48.7968 49.1165
1 18.4685 4.64063 49.0828
1 33.1547 17.9794 25.2706
1 49.8419 50.776 9.89205
1 24.5221 37.6115 46.5909
1 27.5579 44.2327 38.6131
1 4.02729 16.2805 49.7015
1 6.45211 52.2612 4.72294
1 11.6166 4.23189 33.2384
1 29.885 41.6519 47.3295
1 27.2412 38.3593 25.1851
1 32.6581 14.899 49.4139
1 33.5621 39.7384 14.023
1 24.9881 44.6887 27.9041
1 22.8411 28.2069 40.5341
1 28.7274 40.8715 46.8374
1 32.2284 23.7019 36.3829
1 2.7583 14.2245 52.6836
1 12.7373 12.4856 43.5794
1 25.3912 43.6839 27.0154
1 28.5713 6.85772 26.1829
1 13.5875 21.8807 1.22347
1 38.1341 29.6671 16.1621
1 50.3697 50.9482 47.357
1 40.5368 21.8074 50.7385
1 32.777 54.27 0.0546556
1 7.17559 15.3284 47.6729
1 52.0024 13.0586 17.7788
1 53.5966 20.7017 26.1513
1 14.1445 4.88544 48.7041
1 39.2062 -0.0587848 40.3687
1 20.2343 37.8498 50.4261
1 1.26833 20.3533 12.5335
1 25.5504 40.9466 52.0165
1 1.1619 18.3808 50.9676
1 51.0923 51.887 44.8546
1 0.910906 16.2135 52.8763
1 41.7449 46.5917 39.2643
1 31.5356 54.2543 0.898042
1 30.3086 18.3575 46.6773
1 15.7803 47.223 8.39092
1 46.6991 53.8231 37.3157
1 3.78196 15.1868 50.4661
1 22.7131 34.8751 45.0609
1 18.9222 35.479 49.508
1 50.5852 10.9784 9.7496
1 22.7593 34.2073 43.7384
1 21.2411 40.7326 53.1962
1 4.34785 21.5186 37.2701
1 50.8881 0.389809 8.80154
1 34.2454 5.43984 43.3347
1 24.0149 30.4268 37.4858
1 46.0901 4.36002 30.3271
1 53.877 22.2253 43.7271
1 4.59124 19.4722 46.9241
1 5.37501 0.45124 0.994759
1 37.6683 3.00361 35.6657
1 18.6072 42.5949 2.11129
1 50.6078 27.2675 11.6754
1 24.6299 38.0572 48.0479
1 26.0935 45.2226 37.039
1 25.4159 38.5604 45.7854
1 33.7604 42.5341 12.77
1 0.97079 24.0658 9.61331
1 46.0094 10.5228 17.6599
1 1.14746 0.393276 3.63114
1 37.1465 2.63844 38.3617
1 33.0722 9.42507 52.3593
1 43.0607 50.6033 27.7511
1 27.2452 46.6307 8.71674
1 23.4587 9.6451 6.97255
1 28.6277 1.53856 51.1149
1 8.45227 16.0697 8.84487
1 35.7528 25.6017 18.2944
1 27.1125 39.6676 43.6017
1 8.7303 14.9877 45.3689
1 13.411 34.0107 53.7465
1 52.4641 0.694431 6.60514
1 1.30418 50.8786 3.07764
1 36.3339 3.67185 37.6134
1 45.3522 52.5068 41.212
1 40.8587 53.7739 38.7198
1 39.8337 47.7208 38.6031
1 29.2452 43.1417 42.6891
1 16.3125 3.50657 38.5941
1 9.73005 21.3906 6.66343
1 52.1563 22.5117 48.111
1 23.3637 38.0885 48.8021
1 53.9948 21.6516 28.4932
1 26.0677 35.1052 29.6284
1 17.3417 26.1127 49.1993
1 23.2471 30.5114 40.1759
1 30.3704 25.8208 24.7403
1 16.7712 2.03936 28.0092
1 10.8729 3.24044 39.7786
1 27.6985 3.25965 2.65127
1 8.7971 5.97911 51.5864
1 44.793 46.8104 32.571
1 37.1295 33.1343 13.6463
1 30.1101 42.9177 45.3481
1 40.3321 26.821 38.4986
1 33.2279 47.1745 0.703193
1 30.1817 42.4211 51.6652
1 5.68866 22.5253 8.05667
1 42.0584 0.510676 35.9288
1 26.6684 39.2826 46.2342
1 43.6832 18.4647 2.68338
1 19.3468 12.2429 6.45359
1 35.0367 53.2476 53.7891
1 5.78999 14.2468 49.4566
1 50.9916 21.8904 50.2737
1 25.2113 11.161 27.2928
1 11.1549 14.206 5.76655
1 39.3474 6.33593 9.9766
1 45.3807 15.6154 17.9365
1 49.9642 53.1071 40.2433
1 28.8507 42.6161 0.549539
1 22.1108 13.6676 11.751
1 33.9021 13.0309 52.6987
1 5.45553 51.6947 2.21651
1 9.22012 9.27683 49.0432
1 49.645 49.4564 9.42486
1 48.6905 20.7732 -0.00296213
1 0.776193 51.8971 49.2421
1 45.9531 10.8745 11.5768
1 31.5083 46.6879 5.88949
1 30.5421 41.2595 48.7671
1 25.455 23.2215 37.2252
1 33.626 24.7614 35.1322
1 10.8642 13.8539 44.7419
1 42.3803 53.1945 38.0754
1 33.4421 0.731417 5.34057
1 35.859 3.76419 44.61
1 30.291 43.1141 0.340851
1 24.2628 5.47332 53.9191
1 34.7739 23.4489 27.7897
1 25.9409 39.4291 29.8502
1 32.5875 54.5 52.9228
1 35.0287 5.46831 49.5738
1 37.2571 4.43312 22.2365
1 20.707 39.7824 52.3093
1 26.8946 42.8094 38.5386
1 1.53298 3.55292 34.3104
1 41.1592 22.388 49.4768
1 4.96469 -0.17696 43.2964
1 26.8623 20.0047 43.4623
1 38.9851 8.50334 19.904
1 16.8759 35.9917 51.2117
1 30.0425 44.6704 12.9302
1 23.5259 36.6104 46.7565
1 17.4611 9.52471 2.06822
1 37.662 0.478926 53.4018
1 24.8933 2.85494 50.969
1 2.31405 13.9928 12.5251
1 16.4312 42.9619 2.55847
1 11.9243 36.4946 1.53179
1 32.9085 41.0101 14.5129
1 37.9193 49.2251 37.0737
1 24.1092 31.821 37.453
1 0.823728 21.9404 29.6186
1 28.3716 1.47826 47.0344
1 30.7162 42.6698 46.6755
1 45.058 15.9914 4.89041
1 52.861 1.7989 7.30817
1 19.5006 46.4906 8.81207
1 34.4833 53.1907 50.3617
1 20.0338 23.6524 45.6147
1 32.6368 44.8659 53.5562
1 19.142 22.7757 47.4946
1 0.370185 20.9983 49.2993
1 36.0626 11.942 4.16464
1 12.4028 20.8541 3.70908
1 18.8671 41.446 54.2027
1 12.6424 3.18352 46.61
1 17.7315 26.2627 47.9297
1 23.255 53.0255 33.6383
1 27.1155 41.2532 41.8147
1 53.0287 22.6364 45.9635
1 32.0678 43.8462 51.5182
1 22.8036 44.4153 4.49626
1 25.1555 9.53821 11.7232
1 41.8258 2.75334 13.602
1 31.4334 19.0161 23.6967
1 24.3074 14.0466 16.0151
1 0.668011 6.20278 19.765
1 12.4319 16.7758 39.1409
1 20.2111 11.5591 5.52418
1 36.6355 10.881 6.24914
1 43.0407 14.6261 7.70325
1 38.9056 2.72607 10.0967
1 5.86776 19.9045 24.272
1 6.82061 4.19432 34.0449
1 2.83977 53.5219 1.7011
1 35.0093 14.4694 19.977
1 51.316 54.19 7.25778
1 53.7751 11.9697 13.8339
1 32.8011 23.492 43.4062
1 28.5621 6.85679 14.912
1 14.0178 51.1749 13.3928
1 10.5968 18.2599 15.5584
1 45.1722 51.355 47.9284
1 16.9069 17.9321 26.2475
1 25.1024 21.856 41.6861
1 26.4495 17.7267 33.9703
1 29.0299 40.3346 21.1844
1 6.57284 5.7134 1.92872
1 28.2743 11.3542 38.2965
1 51.7925 49.7349 6.13751
1 41.3579 28.1905 14.5119
1 7.91258 17.2796 14.4593
1 39.515 53.1865 53.8441
1 35.9345 15.308 2.45058
1 40.5641 31.8819 12.0973
1 42.7978 5.54515 12.584
1 22.3507 14.8133 14.2332
1 19.0795 9.59029 38.2344
1 10.2367 14.7667 6.82775
1 37.6071 5.87482 8.04328
1 38.771 9.92051 9.09437
1 6.84501 19.908 8.39636
1 26.3751 2.59909 51.4632
1 10.8391 18.6284 19.9461
1 31.3002 8.91851 20.8426
1 46.8038 1.82142 13.0456
1 35.0024 5.24451 2.8877
1 41.4727 15.9408 5.98174
1 7.62624 11.7415 6.92709
1 12.2317 19.4955 4.40165
1 24.5925 25.1445 38.3398
1 24.8524 45.0046 5.55969
1 23.2537 13.8163 13.8041
1 48.2525 12.0318 10.0046
1 27.7398 8.69853 16.2381
1 27.7398 8.17309 14.9511
1 49.7215 4.23644 11.2785
1 52.0088 2.31323 8.26224
1 18.8596 5.38604 41.8568
1 16.8367 17.4879 16.2979
1 51.8129 52.6866 20.5916
1 47.5196 48.9008 53.2587
1 46.7978 13.3584 8.87745
1 42.3283 28.5616 13.6228
1 28.7644 5.09729 29.793
1 32.0973 26.008 21.2283
1 17.4557 11.6817 38.3392
1 12.8514 3.5643 41.7672
1 24.4434 10.0937 10.5292
1 48.681 50.0999 48.7187
1 43.851 47.6721 32.0931
1 20.2709 7.44132 39.0355
1 52.8677 5.8851 24.8723
1 50.1346 22.9884 12.9139
1 37.7687 26.9546 17.0767
1 35.2375 53.9055 52.4668
1 32.5449 24.5036 38.6315
1 47.5814 4.4119 12.1952
1 20.777 50.293 13.5931
1 27.5404 13.6338 36.7652
1 24.1624 48.3194 14.1532
1 7.30311 50.2289 3.8702
1 17.4595 3.95681 39.2898
1 35.6079 4.19162 49.6307
1 24.5661 9.56921 9.25315
1 22.3826 10.2661 6.11929
1 30.1198 9.62461 21.3601
1 29.3384 6.89969 17.2106
1 51.785 16.0788 22.0476
1 30.2102 28.2042 23.6875
1 36.0356 12.8912 3.12579
1 10.0123 52.7977 13.3852
1 45.6209 24.7923 43.6262
1 37.0918 16.0941 18.9646
1 29.0282 24.1956 39.9785
1 27.6776 6.51228 8.62639
1 1.78798 52.6885 2.41257
1 46.2488 20.2384 27.2596
1 34.7841 52.3714 5.55983
1 24.5821 1.43571 38.7124
1 39.9302 4.15702 12.104
1 45.4138 50.1903 52.7294
1 11.0688 4.16974 34.6239
1 32.1464 10.0421 31.9863
1 27.9089 25.2937 28.9928
1 35.5526 13.1914 24.6274
1 30.5885 16.2809 27.6486
1 30.7871 36.6311 20.957
1 18.0473 0.12171 23.4965
1 27.3089 13.3102 39.4651
1 5.447 10.2622 7.90761
1 14.5788 39.5025 0.0813115
1 47.6758 50.8641 48.0192
1 39.528 19.7051 52.7826
1 1.38898 4.82019 27.8919
1 23.7222 20.4179 42.8687
1 10.2904 16.8007 11.3385
1 37.6922 11.9248 24.6888
1 35.9038 31.6118 16.6314
1 22.1042 2.7756 44.947
1 34.4781 48.827 44.8146
1 32.7906 23.873 32.1798
1 28.0505 44.0871 20.6993
1 52.7631 52.9899 4.78775
1 4.31811 15.6181 11.5943
1 37.9687 25.6915 17.7086
1 29.3222 22.6711 26.5375
1 29.2937 6.33957 15.9665
1 39.905 10.5319 19.014
1 41.0817 37.53 9.43216
1 35.3677 44.3247 11.7328
1 28.1395 43.0494 21.6638
1 12.936 37.2614 0.954888
1 53.6831 50.5922 53.0845
1 37.6364 10.8864 7.16098
1 19.9871 26.4577 45.8722
1 0.575598 16.2648 16.1892
1 34.5126 5.9633 52.1352
1 32.2103 2.92409 28.8414
1 1.33611 11.5789 12.4639
1 31.0236 10.1356 42.9969
1 1.11171 28.6582 7.83912
1 15.3315 11.0165 40.9813
1 20.1876 16.0299 15.7133
1 37.5402 9.67178 8.22145
1 37.2334 1.86802 44.5191
1 37.0591 1.19677 51.2612
1 12.9114 9.98943 3.5053
1 38.9714 15.4343 5.78829
1 48.4032 52.5134 24.208
1 29.3473 15.6512 29.7892
1 40.9282 40.206 10.0686
1 43.768 51.704 48.26
1 30.9619 26.3717 22.5386
1 39.9704 18.321 2.16915
1 17.8146 13.4743 35.2207
1 47.6392 15.7239 24.1604
1 41.5099 7.63399 11.9893
1 39.6731 37.5732 9.98848
1 7.15914 18.8531 20.7083
1 22.3343 2.77456 42.4203
1 36.651 2.2311 50.5247
1 23.301 32.5379 41.5203
1 17.8004 10.2273 38.8091
1 37.8097 7.52472 20.0543
1 29.4333 53.6923 43.4052
1 31.1607 42.7725 15.3985
1 51.874 23.1068 45.5477
1 38.1919 0.235632 50.7263
1 28.2493 13.0651 40.4691
1 51.3239 7.38834 46.393
1 20.4696 51.2455 14.5981
1 41.5003 19.594 26.3283
1 52.7768 7.83485 8.56664
1 36.9078 14.393 4.8616
1 7.04346 20.5563 31.2962
1 44.2063 15.1588 7.07585
1 31.8983 12.2554 21.5303
1 34.6022 5.28792 36.2894
1 42.537 17.2241 4.41116
1 15.7363 6.7438 44.0872
1 11.8568 22.155 3.86447
1 7.94793 17.7411 15.7413
1 44.4668 24.7472 32.8015
1 44.3168 25.3202 34.0279
1 32.1495 13.6443 21.7605
1 1.77485 5.33355 6.10928
1 32.6639 15.8287 21.4103
1 45.3363 53.4268 37.4492
1 29.6975 27.293 24.5967
1 37.0849 18.388 52.6264
1 41.8326 53.491 41.1301
1 29.1592 6.73994 24.8606
1 30.8135 24.4169 37.1485
1 40.8826 30.6791 12.874
1 29.6165 16.3883 28.7051
1 22.5711 0.690574 16.1822
1 33.6296 23.6138 20.71
1 8.13886 -0.176173 46.0839
1 20.6616 5.03604 39.622
1 25.2777 19.5506 37.9144
1 10.0843 50.5031 7.32539
1 6.77989 17.4271 12.3805
1 23.9873 32.6802 36.434
1 1.92093 16.2596 51.8423
1 34.2928 0.80733 13.8155
1 15.636 18.4191 18.1924
1 38.0715 4.68806 8.77175
1 12.1408 3.82974 39.3026
1 45.4859 18.2633 17.2659
1 40.2749 26.1566 34.6842
1 34.5111 2.50209 16.3385
1 19.9323 6.18083 52.8728
1 24.9746 12.0103 14.3433
1 36.3424 14.5269 24.5527
1 34.2622 7.4793 -0.0741451
1 22.6191 15.4945 15.4153
1 16.4413 1.09527 26.6262
1 41.4494 49.3308 31.0657
1 49.2978 51.056 46.3709
1 35.1614 10.1105 20.3961
1 34.9517 1.14294 2.73291
1 34.179 14.9445 25.2871
1 28.7378 14.0669 31.7216
1 30.4355 19.4863 45.8084
1 20.1922 6.30185 39.9892
1 40.3516 44.9154 11.5239
1 21.5242 11.7001 7.86124
1 53.5489 50.1133 4.33709
1 54.0108 2.3975 6.55532
1 52.8796 50.7852 5.63497
1 9.60323 29.1811 3.41685
1 35.5884 27.0555 10.466
1 31.2392 17.0765 26.5484
1 17.9405 17.5882 24.1785
1 42.1844 13.3126 24.4397
1 2.05088 52.5886 49.1224
1 13.8726 2.94002 42.4837
1 3.93542 52.9409 47.3609
1 34.6689 27.4935 11.3162
1 19.3402 34.5679 47.2822
1 21.5111 16.5414 17.7632
1 35.6757 10.541 3.73768
1 4.50477 2.30539 4.42488
1 24.8214 48.0003 19.1696
1 16.336 17.0081 30.5233
1 22.5548 15.8254 18.3846
1 4.88287 0.528426 2.52451
1 35.8986 25.5841 32.2019
1 11.5701 50.5437 9.82737
1 42.489 20.1329 27.1134
1 46.687 15.1115 6.72671
1 52.2289 14.9443 19.3638
1 46.0286 5.61487 13.6388
1 37.6467 25.7191 41.9564
1 52.4676 11.7666 14.6974
1 53.9556 9.21513 19.1991
1 40.4628 2.90943 12.7633
1 23.7962 46.2238 8.82661
1 18.0904 16.9181 15.7733
1 48.6294 13.3417 22.241
1 49.8639 17.9078 24.6231
1 33.4972 12.1635 49.9716
1 15.8545 13.2647 5.66474
1 25.7738 32.4592 30.5753
1 34.2546 8.53409 49.545
1 22.2735 29.6949 42.6331
1 20.5959 51.3061 16.9622
1 1.93828 53.422 45.3972
1 21.0962 14.5998 12.4268
1 52.9596 8.21095 15.6915
1 45.7943 23.1981 46.7253
1 36.7068 18.7289 25.6641
1 34.8373 18.8378 20.1251
1 45.6529 14.1543 8.4511
1 54.0014 26.767 9.02567
1 39.6352 6.4575 11.4803
1 46.1087 52.1056 25.1322
1 40.5775 14.1709 18.2817
1 51.0682 13.0513 20.2033
1 6.88366 1.84731 40.4457
1 31.7072 16.4099 22.3991
1 41.4591 6.30545 12.6495
1 33.622 1.91935 13.9339
1 0.416241 10.9364 13.4807
1 42.4778 53.3602 13.7955
1 39.9222 1.73686 35.9875
1 13.5646 2.80282 43.9687
1 34.8566 23.9091 19.9036
1 36.5235 43.5448 11.926
1 51.5362 7.66379 45.0203
1 6.37479 20.9897 32.4361
1 53.8914 14.5314 14.5525
1 30.4064 3.4484 30.3816
1 46.847 1.59775 22.9406
1 25.9509 21.067 35.5055
1 41.9579 46.9718 12.6463
1 27.704 53.2633 41.4124
1 28.3393 8.52071 18.6916
1 19.6353 11.59 35.1344
1 35.725 22.8819 19.3796
1 6.21991 2.53725 38.0871
1 47.2903 16.8471 17.235
1 16.9855 0.179553 21.2544
1 19.4564 7.82573 0.712007
1 46.0409 14.3773 17.7103
1 17.4195 14.9886 10.0041
1 19.9755 11.7175 32.323
1 41.3659 52.3458 27.2961
1 35.6482 17.1295 24.678
1 49.309 8.52894 16.6651
1 9.45241 17.7092 16.1691
1 7.60572 0.918972 53.7081
1 46.7081 5.90727 28.0082
1 46.9196 50.9775 12.4264
1 19.6364 19.3076 27.9185
1 50.6892 11.6764 20.5895
1 49.878 3.35071 30.0781
1 41.9545 25.2636 33.141
1 0.209894 48.7983 20.6752
1 34.9971 25.4277 19.6488
1 25.2544 19.4259 40.3797
1 4.24062 1.054 40.9055
1 5.25922 3.59893 35.7173
1 13.1152 3.78511 40.4047
1 32.939 3.17955 41.517
1 53.3685 39.7152 4.14922
1 40.4175 18.2292 18.2365
1 31.0347 14.3291 22.6147
1 47.3516 46.83 29.5541
1 14.0004 4.13195 33.9822
1 49.5126 51.5402 23.7696
1 52.2249 28.2076 9.9313
1 20.1203 13.7842 30.525
1 41.9197 18.2695 25.791
1 2.67918 6.42349 11.2294
1 28.2402 41.118 52.152
1 24.7911 30.901 32.6174
1 47.6606 3.08382 21.0839
1 48.0685 18.135 16.5452
1 51.6647 6.66439 25.2612
1 16.1845 48.1098 9.35939
1 23.9203 48.8884 19.6791
1 46.8798 4.29281 13.5251
1 49.5211 13.8911 16.5737
1 37.4528 10.4343 19.3856
1 29.9348 25.0722 36.2907
1 33.6296 7.52539 33.9874
1 32.9144 44.6515 12.2096
1 9.31719 4.21219 25.7246
1 50.9788 10.3247 16.0006
1 42.5328 33.9186 9.60748
1 52.3122 22.0412 28.8875
1 35.0194 30.0576 18.4741
1 35.3564 15.5767 24.6251
1 53.8167 4.45217 29.6194
1 0.896484 17.638 20.4927
1 3.08003 4.82736 31.2291
1 53.2513 3.78562 17.0085
1 16.9699 27.1029 50.0549
1 41.6839 18.993 18.1636
1 47.807 7.22823 18.1834
1 32.2905 14.4917 26.7932
1 53.3212 24.1784 32.9597
1 48.3272 9.76668 16.5894
1 38.0679 6.19174 20.4038
1 4.01611 3.43653 9.80237
1 54.4004 13.262 13.7617
1 25.5176 37.1606 30.8497
1 6.06485 20.7116 34.8573
1 12.7258 52.7003 15.6888
1 47.6216 48.1639 0.292327
1 36.6828 39.6186 11.8662
1 46.323 3.56135 21.3415
1 46.7252 48.2861 46.7309
1 32.5707 9.93422 20.7735
1 45.7592 18.1688 26.4894
1 51.9169 7.90972 22.9883
1 30.828 24.009 23.1933
1 18.212 54.3924 22.0749
1 13.6163 2.33471 25.1057
1 24.2543 46.3392 26.268
1 31.3484 15.0217 27.7275
1 35.2802 3.83391 0.888861
1 24.7384 48.5445 16.4616
1 38.5853 1.49152 10.994
1 16.2575 52.4964 16.8565
1 53.2365 25.5446 9.51808
1 52.1089 9.53229 21.0401
1 41.0674 11.1045 25.0678
1 20.3403 14.1214 29.0883
1 44.7366 2.85527 13.7223
1 38.0149 21.0761 18.5426
1 5.04588 21.5616 34.7731
1 43.6424 22.4649 16.0521
1 0.138941 20.7067 13.2111
1 0.551314 7.08699 14.0717
1 46.705 51.7364 46.0521
1 39.9044 9.08656 11.0878
1 36.918 11.8624 5.17238
1 0.581983 8.41938 13.56
1 6.43107 8.74239 52.9062
1 19.8184 22.4518 46.3235
1 41.3614 24.1881 16.5484
1 40.1145 16.4305 5.87942
1 48.0933 19.0841 25.9764
1 39.7043 12.0534 8.27437
1 35.4504 5.68277 33.727
1 33.6103 6.47692 40.8626
1 42.4208 10.9645 18.7292
1 20.3715 4.71809 50.757
1 18.3699 15.5775 29.2637
1 37.8586 22.5427 18.4442
1 34.9762 5.8036 22.7581
1 31.149 24.549 38.5832
1 52.0309 24.4752 37.4434
1 7.80823 16.6408 11.5929
1 11.3219 4.9267 29.6205
1 41.8337 6.23471 20.5761
1 44.4701 50.7582 51.8852
1 40.1023 24.7187 45.2555
1 43.5085 46.717 34.8912
1 42.1695 4.73872 21.1247
1 28.1527 0.71692 35.1528
1 39.3398 18.9344 18.4509
1 44.5056 21.5404 15.3196
1 37.6751 19.5722 26.0383
1 41.7487 27.1045 38.9581
1 33.8857 13.7262 20.3733
1 54.2407 51.4792 48.0264
1 36.8735 16.4132 2.8926
1 26.9762 15.7925 32.856
1 6.08767 0.323693 12.8582
1 23.1554 50.3001 28.6663
1 47.7902 50.3627 25.7712
1 46.3078 31.8252 10.1106
1 19.183 17.3882 17.844
1 27.4746 7.03054 28.685
1 46.1234 3.02089 13.6329
1 7.86182 51.1242 6.02737
1 23.568 50.0062 30.0427
1 31.269 12.6572 29.3645
1 42.1748 26.715 40.2753
1 43.0753 13.0876 18.0745
1 23.4719 8.63755 33.8912
1 1.27369 42.9048 1.75063
1 53.1113 50.6319 0.195644
1 31.7798 4.03261 14.3307
1 51.4364 1.80749 19.0185
1 45.8664 4.50493 20.4123
1 32.5185 23.9478 34.8417
1 31.1426 11.6485 30.5059
1 53.5911 48.678 3.99755
1 30.724 19.237 25.0223
1 9.21592 8.04003 4.49982
1 2.58111 17.0738 14.5734
1 39.6648 1.58384 12.2787
1 2.79801 2.2059 4.11241
1 32.9466 4.69137 24.6223
1 6.9192 4.61152 26.9433
1 21.8991 14.6144 22.709
1 34.8959 15.8059 20.3282
1 51.0931 7.45807 24.1709
1 25.8155 9.90792 26.7951
1 39.1257 53.2686 27.4412
1 28.0955 15.5748 31.8674
1 42.768 52.1457 47.2773
1 16.322 8.8492 42.1053
1 52.8479 52.5506 43.4718
1 30.9109 9.68315 35.607
1 35.1979 24.4486 28.6956
1 33.2819 7.41026 44.5535
1 41.8743 51.8331 13.7661
1 47.1966 22.0605 29.0039
1 33.0734 15.5624 25.9068
1 24.7262 12.0074 26.1956
1 11.0211 0.763715 19.1115
1 1.60452 22.7538 39.2473
1 37.49 15.6149 5.14621
1 21.7023 12.1091 30.5651
1 17.9097 7.49449 41.1278
1 27.3351 26.7793 28.9713
1 6.1004 33.9339 24.2583
1 48.8655 25.0896 35.4224
1 46.7347 0.125294 23.5135
1 31.7234 23.7084 22.0583
1 34.0262 50.2101 6.61517
1 30.3558 1.41561 33.6492
1 19.8186 2.12775 30.2982
1 51.3229 23.6774 41.1115
1 41.3462 24.2092 30.9628
1 31.0034 52.7535 36.0643
1 53.008 9.35902 14.8048
1 6.92369 20.2363 28.8
1 36.7783 7.51904 29.9224
1 5.55983 33.2449 23.3218
1 24.7921 48.8253 32.6672
1 27.9206 5.06989 30.9783
1 41.8578 0.324652 13.0715
1 41.0446 26.5746 42.7884
1 42.3403 12.0224 25.0724
1 21.8919 51.8026 24.2588
1 35.4288 7.54754 20.8087
1 45.6171 12.9929 18.1198
1 48.0697 15.5744 17.4122
1 48.8612 7.78085 25.436
1 35.7958 24.9338 43.3334
1 42.5251 45.7248 12.1793
1 50.1515 6.28543 17.7163
1 44.0591 7.59318 27.0249
1 22.5616 52.0234 30.7661
1 33.2853 9.54581 -0.275125
1 33.448 5.96558 22.6445
1 4.10994 2.79178 7.39927
1 25.21 39.3219 32.1635
1 53.8875 17.5992 21.3091
1 13.3407 20.8587 2.45391
1 25.9581 6.29169 32.1534
1 51.0545 24.1586 36.374
1 14.3 18.4422 26.0805
1 36.9616 51.6686 10.4529
1 44.3007 18.7193 26.2294
1 0.487817 22.3136 41.5033
1 9.95392 4.30643 26.9032
1 44.9945 9.57544 25.3046
1 32.9733 27.0113 20.7363
1 39.3205 28.8117 15.8259
1 27.1072 17.2798 32.8523
1 47.2054 12.0039 23.9508
1 48.9626 0.915138 12.3552
1 22.2984 51.0286 25.349
1 24.6903 39.9337 33.3944
1 38.2786 13.2273 24.8867
1 38.9924 7.46722 9.37549
1 40.3752 6.59617 20.5266
1 34.776 5.66967 40.2907
1 51.243 21.1717 26.8484
1 52.3136 12.8313 15.6789
1 39.9246 24.6649 31.1808
1 35.775 4.35056 33.8387
1 15.3632 49.0534 10.0865
1 33.5229 47.7127 42.7635
1 36.2647 9.31468 28.0769
1 22.5101 29.5045 41.1362
1 24.807 34.6335 34.1794
1 38.7512 1.0455 38.4436
1 38.0515 1.89518 37.7157
1 22.4235 1.40043 35.3919
1 31.9039 21.3609 45.023
1 26.4857 9.76794 25.5841
1 13.7601 19.4258 2.03251
1 39.894 26.0203 43.1526
1 23.1983 9.18184 32.6482
1 49.8606 23.1218 31.6993
1 50.4653 23.7091 43.6264
1 48.0387 22.3193 30.1219
1 25.7271 0.484205 36.1996
1 49.6669 53.4535 36.6159
1 53.1695 21.0587 50.1453
1 29.7289 47.1003 39.8539
1 27.012 53.0357 40.2358
1 24.1492 50.1552 32.5619
1 33.6215 2.78747 15.3251
1 21.8198 3.16643 40.9716
1 3.32048 30.4926 5.27315
1 45.319 25.7973 34.9949
1 30.0237 10.0523 36.9611
1 49.7124 21.6705 28.3611
1 24.6209 37.5848 34.451
1 43.0291 52.9386 40.4848
1 10.4853 4.14756 52.3577
1 24.6867 41.4643 33.4977
1 41.1187 26.6096 41.2639
1 42.9976 16.7544 18.2357
1 43.5603 25.528 43.0107
1 38.9648 4.99769 9.88808
1 32.1632 10.782 45.4666
1 44.7233 46.226 33.9072
1 49.4822 22.2894 29.6075
1 27.5513 31.0612 27.056
1 30.3751 6.04243 24.6786
1 3.60517 19.1844 53.35
1 45.9328 53.0049 39.8182
1 34.2349 32.4675 18.1539
1 47.9931 24.6121 42.5875
1 28.2766 44.8998 16.7288
1 49.1682 7.41273 17.666
1 1.73774 3.20723 16.39
1 33.8055 24.9857 32.3431
1 22.3501 5.27594 36.4793
1 37.5444 49.4609 12.2024
1 48.4958 46.6742 27.1352
1 54.4818 21.4729 48.0244
1 48.5082 3.61601 19.9186
1 36.9694 8.34023 8.01327
1 43.2607 23.1912 47.3538
1 51.8 8.05834 16.4443
1 40.8299 52.9402 45.463
1 36.6904 10.1065 27.0006
1 42.2622 23.7772 45.2757
1 27.1092 45.374 37.9743
1 40.9395 20.2893 53.0513
1 33.1866 24.6674 39.8252
1 16.4846 53.5743 19.1365
1 3.10944 27.2287 7.13546
1 38.3701 21.3522 49.5338
1 21.8411 3.21288 47.2411
1 49.3101 21.5608 52.9195
1 43.0749 26.3542 37.8913
1 44.8227 12.4954 24.6193
1 5.4695 0.106584 5.24492
1 48.7445 23.9183 41.5696
1 29.9459 4.55267 29.4964
1 28.4287 2.63357 33.5219
1 49.2037 23.8324 44.3743
1 43.8731 6.45768 13.1135
1 33.739 3.29546 40.4567
1 46.3825 0.739284 35.0757
1 46.7447 23.8535 46.0654
1 10.0386 3.13366 38.7612
1 53.4092 0.175752 5.53866
1 49.1889 49.3107 51.1476
1 44.1788 18.8412 17.5803
1 25.0427 28.6178 33.7328
1 50.9119 23.5574 32.5499
1 41.5608 15.0605 7.43239
1 50.2905 9.62815 22.2905
1 27.8246 0.702164 44.6486
1 40.2371 7.88329 19.9285
1 40.4888 23.0128 47.1048
1 38.1547 0.961734 44.055
1 12.0983 19.1217 20.4379
1 43.1925 6.07087 29.0446
1 33.1964 3.84039 17.8291
1 48.5264 24.4749 40.191
1 38.4448 12.586 18.9953
1 1.42067 31.9595 5.65975
1 27.6589 40.8994 42.9551
1 40.8015 21.5919 28.3487
1 33.3569 21.7876 45.2837
1 44.3484 25.5865 13.8863
1 38.6671 53.7497 52.8226
1 37.6113 26.5472 37.1458
1 28.4471 34.0581 25.0375
1 46.6431 11.7497 17.8556
1 19.2498 11.1346 36.3205
1 47.4357 21.0633 27.8155
1 52.48 1.65755 33.6581
1 39.0678 26.052 41.9762
1 50.9455 14.9802 21.6136
1 53.1755 22.7751 39.4514
1 45.5208 7.97252 18.7331
1 0.421588 6.84486 21.0451
1 19.5645 20.3948 47.0475
1 39.4893 25.4167 32.4191
1 18.2431 52.1398 15.6698
1 46.0757 10.2449 25.07
1 16.6863 22.0697 50.4741
1 36.4595 8.16526 6.81246
1 35.3695 50.1714 46.9744
1 43.9885 6.16027 19.8717
1 7.56726 18.6436 8.47963
1 48.8298 1.01774 21.5457
1 36.5824 8.07111 20.0614
1 50.1478 16.6042 16.2584
1 47.1818 25.519 37.1142
1 34.2083 15.7461 51.3044
1 25.7769 43.7843 36.4426
1 54.0619 22.1341 45.1299
1 25.8647 37.9793 29.6999
1 33.6248 46.8856 9.41832
1 31.8672 44.6744 45.1688
1 30.4864 30.6154 22.7034
1 44.3444 12.2586 17.8654
1 0.810463 24.1809 35.4904
1 47.3737 53.1911 39.477
1 47.1775 6.76228 26.9665
1 23.7516 1.71461 37.3478
1 19.3236 3.96612 48.0897
1 49.5615 5.951 27.1979
1 47.8767 46.0255 10.0194
1 37.5288 6.48635 30.4597
1 20.5237 4.28389 43.3109
1 43.1032 52.2648 45.8741
1 18.947 3.61841 46.7946
1 40.7542 13.8569 24.6509
1 41.9181 23.5874 46.6609
1 52.4631 21.0733 26.2894
1 44.5193 24.2179 14.5667
1 34.4252 6.3641 34.4427
1 4.43272 52.4787 49.5177
1 38.5501 17.1992 24.5943
1 34.009 0.0685058 30.2888
1 33.5109 54.1569 50.7207
1 47.9729 24.3207 43.9484
1 48.3742 23.1058 32.2763
1 42.8854 25.5609 34.4011
1 46.2426 17.0659 25.372
1 25.4684 41.3889 37.2585
1 36.6558 24.5476 28.9748
1 47.03 21.1632 14.3321
1 44.4034 29.7664 12.5159
1 52.5564 35.7365 6.8232
1 15.2836 3.54885 31.0632
1 34.4427 48.457 40.5885
1 37.9127 17.1929 1.83779
1 46.6293 25.1497 42.2427
1 41.6204 23.3717 29.9192
1 25.5332 26.6796 32.2866
1 45.3202 6.67368 19.2216
1 42.9455 30.3548 12.0794
1 32.439 50.6295 37.8785
1 36.9761 29.4366 16.996
1 48.6308 22.5395 50.8159
1 50.5392 4.18703 18.1222
1 24.6518 1.6708 36.054
1 31.6829 8.40542 40.7082
1 31.5572 8.56754 38.1802
1 43.9734 26.4135 39.092
1 19.8255 8.62949 1.86984
1 3.32243 23.166 35.7218
1 17.5734 47.9115 9.76126
1 26.9869 51.93 36.6366
1 43.4193 26.2188 40.5497
1 32.4047 45.8466 44.3215
1 34.5258 17.8312 25.3999
1 44.2142 26.1175 41.8455
1 41.5498 33.5965 10.5885
1 3.53765 53.0937 0.443278
1 39.8958 3.8614 32.898
1 34.0509 6.76837 38.0796
1 21.8271 5.78828 37.9123
1 49.3882 23.8506 45.8268
1 47.9728 48.957 11.1001
1 35.1378 2.86578 3.16743
1 24.4691 38.3889 36.9002
1 5.85727 19.6253 22.7701
1 43.4035 20.7787 53.2988
1 50.7553 21.3639 53.1001
1 14.0432 52.4255 15.8909
1 34.1635 53.8484 0.78044
1 0.985285 19.1554 24.7571
1 51.9484 23.6634 11.6043
1 38.1593 18.3024 18.5034
1 35.4998 22.5783 46.3635
1 23.1792 3.24224 47.7368
1 1.81785 2.69835 4.90633
1 20.0755 21.0542 45.9013
1 12.385 8.33148 47.4101
1 39.3468 54.4188 41.9865
1 45.733 24.2472 32.4467
1 28.901 5.93464 27.29
1 6.50042 33.8675 3.19273
1 33.7596 7.99572 32.407
1 38.8473 0.0321418 44.9125
1 30.2019 0.0927478 45.7074
1 3.99454 20.302 26.2189
1 41.0723 19.8039 0.211234
1 19.0456 6.60514 41.0931
1 49.1061 15.4646 23.6176
1 46.6388 25.6032 34.6189
1 30.3996 44.0622 43.4296
1 48.4407 11.2972 23.492
1 46.3576 50.8821 48.768
1 10.1936 47.3018 4.79684
1 44.3443 48.0951 12.8139
1 18.883 0.200898 25.8424
1 39.4197 2.91168 33.9059
1 48.9414 51.378 10.8884
1 14.0483 6.84939 46.3241
1 18.5233 52.9242 17.7587
1 0.336071 51.2437 50.4652
1 51.5007 49.6876 52.2761
1 27.7687 46.4849 38.4226
1 40.2496 15.1364 24.2475
1 25.8921 7.97139 7.67207
1 32.6991 12.5418 49.0389
1 40.634 53.0838 46.7596
1 25.8056 5.17575 33.2922
1 4.18624 5.30606 7.4125
1 26.1288 42.7404 37.4448
1 29.5609 18.942 27.1722
1 32.7569 8.06786 34.7952
1 24.7555 36.4126 35.7363
1 1.05855 53.7646 42.9817
1 24.1721 2.49979 47.2863
1 44.6875 52.4771 44.1248
1 31.9033 7.84107 36.9776
1 34.1142 7.43821 48.1358
1 6.83292 12.5479 7.87068
1 19.5937 4.43487 44.4863
1 44.4142 51.9398 45.4554
1 15.5831 12.2148 40.3259
1 41.161 26.0924 35.8654
1 51.4304 24.4065 34.8082
1 13.4076 4.38162 35.3291
1 21.3241 28.0516 44.167
1 34.6508 7.25257 31.7027
1 36.5668 14.2466 3.18094
1 38.7594 20.1502 51.668
1 29.7498 11.583 41.7536
1 51.7718 51.2836 47.1622
1 5.00332 1.62861 6.8385
1 35.1963 7.68111 30.4032
1 37.587 1.11214 46.7955
1 14.4308 53.5196 18.099
1 40.8403 7.01714 28.3121
1 27.7092 12.6895 38.16
1 35.0242 51.626 46.558
1 42.0864 25.4716 43.2631
1 50.4609 0.942658 34.1885
1 44.2703 49.8283 27.5558
1 49.7571 24.8866 36.478
1 14.2984 3.65558 44.8455
1 22.0651 5.4161 52.3792
1 8.52454 3.38132 23.7655
1 39.6625 5.14206 30.8103
1 22.3483 9.33737 5.06814
1 11.0114 2.18451 48.3071
1 25.0148 5.84298 4.79403
1 41.6201 24.6255 44.3614
1 41.237 3.70917 32.5581
1 42.4023 21.2179 27.8621
1 53.7318 24.6965 35.4252
1 52.316 23.5108 32.0574
1 45.2859 23.0078 30.2912
1 38.0893 0.853028 42.529
1 14.5657 46.9183 7.58097
1 2.24253 7.01232 4.06295
1 41.4731 8.69092 19.4492
1 40.7922 53.4719 40.1199
1 48.3168 23.7187 46.6124
1 45.6669 21.28 53.1922
1 37.6349 14.4016 24.5763
1 33.8223 8.57372 0.676599
1 44.8042 10.1669 12.3357
1 35.7544 4.82601 39.7142
1 19.9775 18.198 27.544
1 27.3847 9.25088 22.9512
1 41.7276 15.0117 18.4641
1 39.5366 53.8335 47.4622
1 50.5299 53.4752 9.65696
1 32.4991 18.4006 21.3003
1 25.3305 8.3776 9.14874
1 33.3064 45.6272 47.1741
1 33.8001 0.246481 52.094
1 5.86491 17.8534 19.0248
1 32.4774 28.3608 20.6388
1 53.1644 10.3043 7.0872
1 36.2973 3.28867 36.191
1 32.1574 49.8286 42.0927
1 49.358 25.2043 37.9348
1 40.9501 17.5183 24.9548
1 31.645 8.38614 35.6664
1 15.5185 5.69558 52.273
1 7.00638 7.33048 52.7779
1 20.9723 8.68696 2.78755
1 40.1763 53.5911 43.07
1 34.9676 6.68457 50.8474
1 53.6852 2.47312 17.6573
1 32.3463 8.29095 42.0383
1 45.6813 25.6457 41.4009
1 12.4009 39.0602 40.5802
1 42.0354 12.2458 18.0354
1 48.4561 46.6253 28.4207
1 21.3907 4.55116 49.5344
1 28.7507 11.6514 40.7238
1 16.6265 4.36741 47.576
1 11.2693 3.0352 24.8341
1 19.0373 3.72448 37.7089
1 45.891 46.266 31.4978
1 41.9723 49.1314 13.4852
1 26.6909 4.14459 33.0603
1 54.1286 53.5937 39.0894
1 42.4079 52.5951 43.5257
1 24.4508 6.93801 2.8838
1 40.3238 2.05545 34.5556
1 48.059 25.4908 38.285
1 43.6924 48.8208 29.6008
1 29.247 4.71752 9.53112
1 18.3889 13.5206 8.3998
1 44.3265 46.837 38.243
1 38.9173 26.595 36.322
1 25.5626 38.3166 39.5142
1 39.0566 4.70277 32.0651
1 39.9445 53.5095 44.5723
1 38.3313 48.2398 39.2967
1 32.5241 53.9162 46.918
1 22.6955 6.0539 35.205
1 38.1849 3.53735 34.482
1 39.6049 23.7264 46.2021
1 12.2311 30.1109 0.769606
1 33.394 7.01055 39.3535
1 16.5892 6.36379 42.9655
1 53.4569 22.7348 41.0924
1 18.7807 50.1454 12.3331
1 26.5471 17.8438 41.2369
1 18.1276 27.6978 47.4906
1 46.678 19.2377 26.4178
1 1.30243 21.3295 47.0345
1 30.7808 9.62271 40.6238
1 44.2279 24.7367 43.8538
1 48.5708 10.0123 24.1185
1 41.8866 51.0768 51.3217
1 8.01425 53.312 11.9871
1 12.8925 16.0793 6.8958
1 24.2325 8.5191 6.03812
1 45.9424 23.2283 48.288
1 49.796 22.8672 48.5311
1 47.3425 9.6487 24.9629
1 50.9233 6.29789 10.5817
1 0.818813 18.5248 23.3994
1 24.1359 52.3084 32.8224
1 29.364 11.9186 32.6786
1 39.7626 46.2151 11.746
1 32.0285 7.82701 39.3813
1 17.3813 9.52092 40.0443
1 52.4569 10.4962 15.3048
1 8.76147 20.2433 6.85685
1 37.6596 22.8156 47.508
1 42.0236 20.8641 52.5757
1 40.0917 52.923 12.5075
1 35.6826 6.37943 32.2708
1 38.058 10.1096 26.5761
1 40.0437 22.4701 48.344
1 28.8321 10.9977 36.8987
1 44.1538 21.9809 51.136
1 14.8351 52.9085 16.9083
1 33.2004 7.16957 36.941
1 22.7732 2.92253 39.8932
1 27.282 33.8103 27.3914
1 24.4468 23.0503 40.7796
1 25.0416 11.5966 13.0799
1 21.1132 9.48562 34.9282
1 38.6097 22.2652 48.4975
1 33.8185 6.96155 52.9321
1 32.8154 19.8181 21.5276
1 33.2247 22.1775 21.0735
1 11.4126 27.9187 2.29576
1 21.108 53.9973 27.1119
1 13.7153 6.98079 54.1577
1 5.25026 5.85359 2.40101
1 26.2562 16.7375 37.8588
1 28.2357 33.3798 26.3794
1 46.6619 49.8479 26.7632
1 26.1688 0.183562 39.9471
1 29.6302 9.81968 39.5372
1 18.2193 12.0233 36.9922
1 26.7229 14.5785 39.1501
1 44.5448 10.9178 17.5667
1 27.1181 6.60512 10.0659
1 32.08 13.7311 48.7871
1 33.6376 16.5237 20.8067
1 46.1984 25.9746 39.9588
1 14.6213 50.5945 12.2985
1 8.23769 18.37 19.7686
1 40.0047 17.4705 5.00594
1 25.347 3.12899 35.4651
1 50.6828 12.9558 16.1095
1 32.032 9.05974 43.2301
1 33.8895 12.2444 20.2443
1 28.4544 40.991 45.496
1 34.565 49.1491 53.155
1 4.99875 39.9885 2.26899
1 4.75169 1.12892 8.98826
1 2.6097 40.71 2.31655
1 15.8005 8.09659 0.915567
1 38.3009 14.0734 18.5704
1 27.1596 53.9939 42.5151
1 7.44844 37.2795 3.00957
1 33.6115 18.5129 48.867
1 3.47237 41.8529 2.46383
1 31.7992 1.27776 31.8237
1 40.4737 49.3916 13.4094
1 18.229 46.8977 8.85563
1 36.2145 3.78001 48.3571
1 53.8493 44.4139 3.02046
1 25.0042 35.4856 33.1945
1 6.81006 53.2515 7.14744
1 29.5438 36.8206 21.855
1 10.1595 48.3687 5.57884
1 5.21467 33.1346 3.49269
1 25.1587 53.0498 35.1388
1 36.6218 0.885203 7.33951
1 33.2217 9.0966 46.7749
1 39.4168 14.954 18.5407
1 38.152 13.2999 6.704
1 30.3742 0.927185 3.12129
1 8.86496 0.672549 47.1879
1 36.2864 53.6709 7.13331
1 26.8963 29.1127 29.0219
1 32.1651 44.936 0.708757
1 1.12949 23.1005 31.8907
1 29.8069 2.97479 5.68167
1 46.2245 52.1163 12.3945
1 37.5399 20.6121 26.9036
1 25.2652 48.4346 15.1862
1 35.0604 50.6329 52.4558
1 11.3033 19.603 5.38389
1 11.638 10.9839 3.61466
1 31.4436 10.4304 30.8208
1 10.0306 41.2392 1.50884
1 31.3072 3.42148 10.5418
1 9.40054 4.48679 53.4636
1 49.0853 48.8027 52.3534
1 34.786 50.8725 0.631031
1 7.44405 28.0364 4.5415
1 39.8973 50.6645 13.0148
1 41.8375 4.56287 31.2968
1 32.6135 24.5744 21.1679
1 32.4917 38.4021 15.7203
1 34.84 0.0358833 3.63682
1 50.1833 47.7514 7.63798
1 34.9082 2.44075 0.391776
1 11.6338 34.9543 1.32078
1 34.3546 52.626 1.87006
1 44.0383 52.7924 41.5625
1 53.0313 16.5623 20.7822
1 50.031 1.07565 11.281
1 30.2483 1.05423 53.1346
1 20.7995 5.65271 51.8585
1 38.1088 48.1844 12.5607
1 6.405 49.0237 2.04978
1 27.0683 6.96851 7.42424
1 41.4956 52.6535 47.9512
1 37.9634 44.1749 11.6314
1 17.7531 43.0395 3.18372
1 4.90879 37.2328 3.01076
1 31.9831 54.0459 33.8267
1 34.4088 49.4062 0.43626
1 23.7317 29.6782 38.9988
1 45.4126 14.993 7.45852
1 12.5062 46.5558 5.94933
1 39.5115 51.2693 29.1425
1 36.6963 20.3849 18.7966
1 13.6526 45.5999 5.71794
1 32.6299 18.7572 47.8772
1 16.9748 18.856 20.4704
1 10.646 10.6238 47.535
1 28.7135 26.8275 26.8579
1 5.26756 17.1577 14.6653
1 46.311 22.5323 51.1199
1 0.344497 0.710615 4.68658
1 18.1723 24.0878 47.743
1 38.6912 53.5681 51.5447
1 29.7772 23.5234 25.3967
1 31.643 16.5485 47.9332
1 47.7136 5.93508 12.2383
1 48.936 49.8093 25.2832
1 16.3514 49.8276 11.079
1 12.2715 53.6108 16.7715
1 10.2178 16.1726 7.42649
1 3.92126 52.318 52.1303
1 33.526 49.9589 5.2784
1 47.3804 23.1122 50.3139
1 20.0899 4.53994 41.9771
1 37.3423 0.823859 8.52206
1 26.6528 14.859 36.425
1 30.1307 3.07977 31.9398
1 54.302 35.9308 4.82084
1 53.5966 19.5726 14.0121
1 24.722 45.6373 7.88751
1 19.4933 12.7237 7.90598
1 9.27543 3.76983 36.3882
1 30.3959 21.5548 23.8558
1 11.6352 11.5253 45.6732
1 45.2254 16.1749 24.8233
1 3.71998 39.2059 2.44652
1 41.4651 20.2998 17.8812
1 48.8306 31.9287 9.69139
1 9.86058 1.86732 43.5778
1 28.626 46.2937 12.0707
1 23.3085 8.38387 4.91905
1 35.5431 25.1879 40.9479
1 36.8229 26.1433 39.4591
1 46.9276 1.22511 28.0865
1 43.6059 27.7363 13.658
1 7.10898 47.9172 2.48662
1 53.0741 46.2501 4.62682
1 5.5337 46.0209 1.89117
1 33.6356 24.1343 42.2842
1 10.9189 48.2245 6.84139
1 9.49588 36.9483 2.31342
1 52.6568 41.1171 4.24017
1 4.90011 3.63973 20.3836
1 38.3185 32.2891 13.1525
1 33.9594 25.4178 33.7813
1 45.2 31.3535 10.8123
1 39.9236 52.7318 49.874
1 10.2446 17.2436 9.97511
1 9.44659 47.1508 3.60691
1 27.6962 24.3437 29.9812
1 10.1773 0.618122 17.811
1 35.6533 1.90478 5.32918
1 11.704 16.8641 12.0479
1 30.2494 31.9738 22.6915
1 24.1566 29.5709 36.3469
1 11.7042 6.36742 52.8226
1 1.31145 23.9236 36.6494
1 8.77168 42.053 1.43974
1 38.5202 50.5686 12.1782
1 22.7178 49.7298 21.4004
1 1.50443 24.1769 34.1248
1 16.4824 33.3499 49.8021
1 13.1482 47.2363 8.43516
1 15.3115 16.4763 11.4715
1 36.8281 52.8376 9.70211
1 17.6914 17.7676 19.9713
1 4.37815 3.96248 6.737
1 30.0134 4.91559 26.9668
1 35.7642 3.99515 46.9883
1 34.9022 10.2904 2.48217
1 1.24653 40.6062 3.00469
1 1.21997 38.1578 4.13306
1 28.7572 48.8508 38.472
1 7.3616 0.547578 51.4277
1 50.9822 6.00857 26.5054
1 30.5258 1.74286 5.58892
1 26.4833 28.4175 30.2451
1 48.5031 23.4489 48.0509
1 51.6274 16.2951 16.1438
1 53.1143 47.6808 4.94459
1 1.11641 13.1626 1.94806
1 29.4902 33.7749 24.1763
1 33.6489 46.4755 44.763
1 33.6223 10.8619 50.3053
1 33.6961 18.0493 20.6865
1 11.6458 10.3036 46.6843
1 15.2376 4.4084 44.0322
1 25.8698 10.4312 12.6241
1 39.5099 49.4976 32.1583
1 53.8972 22.4986 11.4109
1 50.0294 45.0367 6.70924
1 26.6199 30.6146 29.2388
1 21.6418 30.9441 43.2108
1 36.7942 49.8153 36.3083
1 41.3342 53.2285 42.5056
1 51.119 32.8238 8.3767
1 12.2289 50.7549 11.0275
1 14.1184 26.575 53.2376
1 12.0831 47.0652 7.11547
1 1.69856 29.8115 7.11636
1 35.7766 2.9649 4.45541
1 8.78041 43.4591 1.69795
1 2.8086 43.0135 1.92735
1 11.7977 12.2057 4.34074
1 29.1364 45.9021 4.83472
1 35.4586 6.78155 5.01376
1 41.7112 16.4094 18.1491
1 35.2261 51.6347 53.6572
1 3.67706 37.934 3.15143
1 43.4937 51.4393 49.5706
1 52.054 52.0458 5.69543
1 50.3446 19.0717 15.6908
1 14.0148 41.8738 1.30788
1 42.0215 52.4695 44.7784
1 1.36971 45.383 1.15903
1 33.0235 51.2777 36.5856
1 35.8685 3.5658 40.4156
1 0.60731 44.3149 1.94604
1 47.7001 2.26268 28.0102
1 9.61227 51.3622 8.53999
1 52.5371 12.4939 6.07921
1 33.4801 50.3797 2.67695
1 34.1352 7.86497 21.0199
1 33.6003 20.7706 20.948
1 25.8339 6.70228 5.60718
1 27.0584 40.7321 51.5224
1 25.4812 25.9074 33.3561
1 51.8544 5.09247 27.3502
1 37.1996 14.6222 19.1728
1 39.9898 18.9289 0.7155
1 36.0304 4.21974 4.94062
1 3.1559 17.364 49.5812
1 33.9886 53.2241 3.29511
1 28.8413 3.35522 32.3624
1 1.95456 17.1531 50.6838
1 35.5041 53.0516 51.3037
1 44.6655 49.4137 12.7444
1 33.6205 50.808 4.12737
1 32.3439 23.7497 33.4663
1 40.1326 26.2184 16.2402
1 13.7543 5.22815 51.0248
1 48.0336 50.4603 11.5816
1 36.3129 46.9936 11.4489
1 11.0447 49.4207 7.71173
1 33.8626 46.0255 10.6634
1 8.09612 7.35261 51.7368
1 29.5482 1.78919 1.0191
1 16.1027 51.6203 14.5264
1 1.0452 46.8997 1.50728
1 33.6921 48.4755 1.29497
1 31.2801 0.526276 52.3312
1 31.7011 20.2139 45.9543
1 23.3788 7.93318 3.45304
1 13.1885 48.6511 8.85814
1 35.3859 2.27931 53.1954
1 36.4582 5.82789 6.97105
1 33.7352 11.5222 52.9074
1 53.2098 43.4759 3.79314
1 17.4373 22.3192 49.3269
1 24.5089 41.6271 0.0710781
1 0.405546 41.8979 2.69078
1 11.8568 49.3832 9.00492
1 18.8176 51.4244 14.41
1 10.3564 8.86066 3.98188
1 3.95275 16.8869 13.8469
1 8.51586 52.0095 8.37359
1 18.1244 50.4577 13.7252
1 44.7392 38.114 8.96246
1 25.6162 0.433269 38.8112
1 23.6769 50.866 31.0002
1 38.3571 45.7701 11.9477
1 10.4562 31.5849 2.22889
1 48.6699 47.0938 9.56879
1 26.0251 51.0067 34.1932
1 47.7931 1.85288 21.8275
1 36.8686 24.8732 18.2959
1 3.13772 13.2363 11.5076
1 35.5262 16.6375 52.9936
1 17.1597 4.84701 45.18
1 37.955 7.20813 8.46502
1 34.6696 27.699 18.7971
1 18.6021 25.293 47.3647
1 17.3918 33.4878 48.6775
1 3.32477 18.1036 20.4776
1 38.0431 26.5063 38.6781
1 49.0443 39.1621 7.16787
1 15.8576 19.0967 19.6961
1 1.94366 16.6525 17.0984
1 29.018 44.3074 40.7705
1 36.4448 16.2431 54.1385
1 36.9015 3.40537 7.0142
1 16.078 6.69933 53.2349
1 27.4634 7.67988 26.3492
1 44.9073 26.2284 36.1896
1 50.264 52.0795 22.4066
1 34.1278 46.5898 50.542
1 43.3564 11.8444 11.0757
1 2.6215 52.0512 51.4514
1 31.5698 28.8157 21.6424
1 48.7512 8.13757 11.3133
1 33.7219 51.4116 1.56337
1 23.0976 48.1003 11.8012
1 34.0117 12.4697 26.4641
1 48.4915 18.7838 2.02513
1 35.1613 32.7683 17.2142
1 28.5687 45.6308 14.3796
1 49.81 8.74139 10.7941
1 27.8981 9.12125 21.5325
1 50.4373 19.9025 26.2977
1 53.5584 5.8723 15.9013
1 50.3003 38.7634 7.08663
1 51.5248 50.1116 22.7431
1 0.55954 8.28371 18.4783
1 45.1016 20.5389 16.212
1 22.4947 2.06095 15.6977
1 52.4584 3.29619 31.1686
1 12.9755 4.29624 32.8082
1 46.1007 50.3838 49.998
1 41.9359 13.01 9.45779
1 43.6957 24.2622 31.6145
1 43.9334 23.4189 30.3878
1 30.7233 18.5836 26.3653
1 44.6375 21.5814 28.6583
1 9.46281 3.74967 34.9392
1 40.0755 54.0499 26.4656
1 45.757 53.3837 24.3148
1 38.2711 16.8608 18.81
1 36.198 36.5433 12.4468
1 6.8901 29.5374 4.97754
1 39.8764 21.1938 27.3647
1 47.7993 21.7599 13.2104
1 3.98771 20.6914 28.6345
1 30.8761 41.721 17.7584
1 34.7261 20.3576 20.2534
1 2.68309 33.1319 4.06867
1 26.2321 46.5426 17.2
1 50.017 53.1645 21.7672
1 25.9526 11.3542 18.2737
1 42.6965 7.93817 26.4445
1 48.9159 23.7948 12.2485
1 37.7143 17.0353 0.302382
1 28.1903 46.1232 10.8574
1 36.2724 51.5034 32.9647
1 39.7256 4.74183 21.669
1 15.2762 15.8144 10.286
1 20.7264 12.7964 8.46441
1 43.1424 1.60333 24.0484
1 40.0243 20.0054 26.5175
1 15.7774 25.4765 51.4934
1 22.3615 53.7674 32.7734
1 48.8962 40.4568 7.41234
1 44.695 39.5751 9.17029
1 30.5754 13.121 23.3198
1 1.40665 35.3237 3.8442
1 18.9023 12.7216 34.3992
1 25.0387 46.1562 32.1595
1 46.0471 44.5132 11.1201
1 3.80084 4.94161 33.9093
1 25.8492 29.0898 31.4841
1 6.04358 14.3261 9.18993
1 48.2013 13.373 17.091
1 35.7336 16.5851 19.5604
1 1.55571 21.036 11.3789
1 0.187764 37.272 4.69155
1 48.1011 40.7422 8.45318
1 33.4684 36.1014 16.082
1 43.4934 41.2373 10.3472
1 51.8574 29.5538 10.1388
1 9.00719 2.85524 41.5974
1 45.7181 22.0735 14.7759
1 39.7564 11.9263 18.6201
1 53.604 42.1825 3.63256
1 26.5869 16.9979 35.1286
1 25.5602 45.6986 34.6672
1 2.98533 17.0508 16.1412
1 22.0438 51.2861 23.0686
1 49.0561 5.00604 28.1958
1 2.1608 10.9819 2.84519
1 24.1214 26.1038 39.2985
1 28.4413 38.7373 22.7203
1 28.2244 12.9962 32.7052
1 16.2368 3.33178 30.1207
1 34.9173 0.706614 27.2749
1 43.5301 10.2155 18.2188
1 16.353 24.2851 50.9456
1 30.8789 15.7901 23.3672
1 26.3357 10.5034 23.123
1 13.2085 6.53794 53.0172
1 33.0407 1.83829 11.4664
1 11.7492 19.037 28.9854
1 36.9627 17.456 24.7438
1 1.8136 1.06136 36.3136
1 19.6367 28.8516 45.894
1 34.6641 14.1189 53.4756
1 25.32 44.795 21.4414
1 44.6095 42.1784 10.3713
1 40.4285 46.8491 39.3327
1 49.0505 20.1155 26.4738
1 0.102256 7.01098 18.6665
1 50.7736 40.8495 5.85726
1 19.3954 15.0768 28.285
1 26.7052 40.8224 24.305
1 5.11053 35.7524 3.18374
1 43.8915 19.7467 27.1963
1 23.0816 3.01995 37.3677
1 47.4071 14.422 17.6441
1 35.1732 20.1717 26.9216
1 52.2718 18.9107 24.6492
1 25.2491 34.8444 31.9382
1 51.0463 39.3098 5.97564
1 52.2834 50.8632 49.5524
1 49.0015 25.1255 12.1674
1 41.2892 7.83695 26.9825
1 22.7223 52.577 29.0253
1 46.2677 23.8306 13.0837
1 28.5159 29.0868 25.592
1 43.365 20.0112 0.481615
1 50.2777 11.4927 16.4451
1 53.7264 19.5639 25.2556
1 47.7747 27.409 12.0949
1 30.1056 14.4492 29.9128
1 33.8041 52.3081 33.912
1 35.3464 50.049 48.3347
1 45.8456 40.2738 9.46795
1 39.254 6.02963 21.2709
1 27.5905 47.8798 38.3102
1 26.7387 44.7964 20.667
1 31.6489 17.8006 22.2548
1 47.6432 17.1637 3.72063
1 6.92687 2.15214 17.7047
1 30.03 20.5142 24.9858
1 8.84546 19.7704 35.2117
1 46.0336 52.3727 43.774
1 23.4631 4.208 36.2575
1 44.5381 4.90852 20.5511
1 53.2023 38.3464 4.87433
1 42.9093 21.6671 50.5656
1 35.2247 19.2596 50.3461
1 29.4634 38.1996 22.0928
1 40.6621 5.42221 11.8592
1 36.9043 20.8582 49.5184
1 37.1946 36.9909 11.4126
1 43.8498 8.91034 18.3474
1 35.9378 7.00393 6.62054
1 29.0157 1.64117 34.0781
1 53.5573 5.80978 8.30358
1 5.39595 31.7182 4.22906
1 32.7627 3.86064 15.4661
1 33.6899 8.17242 52.0484
1 16.2927 23.004 51.4927
1 45.9309 19.2852 16.323
1 0.551494 1.48941 35.5356
1 48.7239 21.1082 27.3485
1 53.3832 21.5632 12.3759
1 53.5563 30.5364 8.36833
1 31.0836 50.0658 38.4194
1 31.8124 20.0527 22.7169
1 48.2385 36.589 7.71628
1 43.3382 40.0807 9.72359
1 12.4805 38.6629 1.29954
1 46.3312 2.61869 31.9225
1 50.9466 19.1483 25.0405
1 52.0806 21.6451 12.867
1 25.469 44.4422 34.3205
1 43.173 13.6451 8.82988
1 49.4547 20.0043 15.0083
1 47.4035 22.7789 31.4253
1 46.938 29.4546 11.6622
1 46.8314 53.5601 12.3205
1 42.0697 39.6168 9.67777
1 40.9027 41.6917 10.4687
1 49.677 41.3805 6.68284
1 19.0036 16.8859 22.0447
1 48.1278 38.1032 7.64314
1 52.4627 6.36715 8.74365
1 39.6534 13.0365 24.7804
1 9.73455 17.8382 17.6593
1 28.9506 46.2164 39.1069
1 35.8515 22.413 27.5438
1 29.8812 52.8244 42.3942
1 50.6892 2.06571 10.3492
1 42.7009 20.8173 17.3655
1 35.0951 18.111 51.234
1 34.7806 47.8029 51.0617
1 47.5686 16.5631 25.2732
1 36.7309 3.00463 24.2973
1 39.0791 3.9184 10.8534
1 48.26 21.878 51.9527
1 39.6273 1.04863 25.5185
1 4.60651 30.544 4.80891
1 34.8727 25.0365 31.4196
1 53.4214 33.0548 7.40962
1 6.30054 35.1365 3.49718
1 40.0155 47.7744 37.1945
1 25.1015 19.5423 42.6369
1 35.9757 49.0138 38.6215
1 4.95244 20.9618 29.6993
1 35.8254 18.1581 19.6027
1 47.8298 53.554 23.4114
1 37.5461 3.38157 8.25923
1 11.7609 19.3305 30.4008
1 52.9267 14.2725 15.6947
1 24.2935 7.50576 33.5809
1 2.16381 9.42167 11.3547
1 27.0151 42.8084 22.4293
1 42.1158 11.9237 10.2163
1 26.2998 52.1003 35.357
1 13.8806 24.2203 -0.0670052
1 10.0999 44.8861 3.3485
1 46.8216 25.2254 13.1285
1 45.4473 23.4101 14.216
1 0.587911 39.3961 3.85542
1 2.48393 35.9518 3.31343
1 34.5623 13.4573 25.4612
1 32.2046 9.82141 29.5149
1 14.9761 17.3402 32.8136
1 29.6851 24.9383 25.6349
1 19.3173 25.1057 45.9656
1 46.3478 17.7823 3.88845
1 26.9447 52.8336 37.8096
1 30.8398 7.04431 22.4839
1 6.23269 53.5606 48.0244
1 50.8618 53.7505 20.8417
1 42.6444 1.17705 34.8148
1 25.1469 39.0066 38.4486
1 47.6852 5.9984 19.062
1 42.8188 2.49181 22.9064
1 41.6093 22.9575 17.1283
1 40.539 48.6852 33.1275
1 25.9194 38.8027 43.444
1 34.387 31.2297 18.8318
1 17.846 28.7793 48.3302
1 48.3189 10.8871 10.8387
1 22.1609 2.62636 36.2586
1 22.5403 32.225 42.5968
1 46.0678 11.4878 24.3792
1 36.4242 26.2331 36.2931
1 28.933 51.2147 40.7289
1 12.6011 26.2419 1.01259
1 25.3707 44.7191 31.6641
1 38.5483 4.04038 22.6322
1 31.0798 45.7608 10.9706
1 32.6356 5.76175 23.7539
1 42.3165 47.3466 34.1622
1 22.2436 49.9034 22.7724
1 1.5916 18.2304 14.0978
1 18.2574 34.6461 48.2901
1 24.7062 48.2348 31.2317
1 32.7122 53.0925 45.8398
1 30.1874 50.7584 40.7193
1 51.6001 25.1222 11.5476
1 39.4335 46.4063 41.7094
1 30.7812 42.8051 53.1589
1 17.1175 52.9682 17.9705
1 40.2721 24.9396 16.9755
1 34.7581 1.13023 1.22422
1 42.6967 8.03042 19.2888
1 36.9576 6.02835 31.5571
1 21.5554 25.273 44.3306
1 17.7658 4.60473 46.6152
1 46.7176 24.2637 44.6075
1 21.4758 53.319 28.4523
1 31.4724 42.6738 50.8659
1 14.1256 4.13715 30.5298
1 31.9477 31.0303 20.3504
1 45.5929 14.9595 24.2337
1 40.996 4.25767 21.9814
1 48.5863 17.8288 25.5127
1 29.5063 7.47956 22.542
1 21.9695 50.0892 18.7618
1 21.4105 13.4515 28.2485
1 39.1446 48.7174 36.5035
1 35.5626 46.6787 43.7178
1 24.7044 22.8821 39.4735
1 45.2066 50.3325 26.6959
1 25.3755 46.6196 33.4157
1 43.7799 53.6312 25.6034
1 22.6629 51.5302 28.0332
1 2.29124 3.81291 17.7855
1 12.7009 51.6862 13.2756
1 30.5292 34.2958 21.7705
1 1.00403 5.83274 21.9805
1 4.882 19.9432 44.7086
1 40.0499 49.5324 30.9073
1 50.4883 25.7422 12.1226
1 35.6386 54.3725 28.6568
1 43.5541 11.534 24.9988
1 50.7328 49.3702 23.6681
1 24.4261 32.0376 35.1541
1 40.5466 25.5474 33.2286
1 34.6552 11.103 26.9529
1 35.6924 1.04746 26.0949
1 44.347 1.64769 33.2226
1 2.53088 20.5326 26.3097
1 28.8916 41.95 43.4308
1 41.9555 50.4564 28.6745
1 34.7201 51.3581 34.7216
1 45.3086 6.02987 28.469
1 31.2537 24.0256 40.7968
1 38.1215 46.1214 42.2145
1 36.6001 2.57182 39.6949
1 25.3343 44.7729 29.2924
1 35.8485 48.4 39.9256
1 8.76401 53.463 13.1642
1 42.6744 48.0556 32.8628
1 5.72086 3.67742 22.7269
1 39.3245 6.83942 28.7471
1 34.5221 24.6402 30.008
1 30.1757 6.64922 18.3066
1 40.3232 2.53981 23.6327
1 34.8805 0.418246 5.06467
1 23.0532 3.04197 49.21
1 37.3508 11.736 19.4252
1 41.4001 10.0499 18.9619
1 37.2126 34.4017 12.8318
1 36.9421 53.823 28.5292
1 10.3761 2.12173 49.4415
1 17.7325 14.948 33.2666
1 46.1987 49.6298 12.7751
1 13.0381 1.91913 23.8528
1 11.0903 30.2794 1.73262
1 18.1571 17.5624 22.6322
1 24.4931 39.0967 34.6227
1 14.4619 13.2137 40.4038
1 24.7082 51.006 33.3442
1 35.7208 6.13647 21.4678
1 44.5266 1.4292 24.4037
1 39.1766 48.933 35.0064
1 36.0447 2.26989 42.3403
1 11.0164 26.8429 3.3205
1 10.6966 1.80186 22.5944
1 45.1733 2.54017 21.9465
1 3.23893 3.93161 22.461
1 29.9678 50.6673 37.8337
1 23.7755 0.950435 35.1773
1 20.8679 2.99716 36.0776
1 23.3167 48.32 21.0992
1 6.04829 4.05039 24.0381
1 24.5577 39.6479 35.8681
1 7.84893 23.1368 6.47472
1 30.6412 49.4995 39.7535
1 51.8111 34.9256 7.54523
1 32.4228 52.5789 36.1155
1 43.2634 46.1608 36.1632
1 40.2954 8.9469 26.541
1 33.9967 34.8341 16.8209
1 25.5014 35.5848 30.6659
1 42.2097 41.9442 10.7733
1 18.6564 21.793 48.4893
1 48.4206 6.85034 26.5646
1 35.8505 23.4852 45.4557
1 37.0776 50.218 35.0263
1 16.5007 34.5933 50.7846
1 25.5317 40.142 31.0656
1 5.17078 19.5986 43.2765
1 24.4613 34.9002 35.5022
1 30.9759 5.17842 25.7067
1 11.7385 18.4426 16.3871
1 49.7434 24.5033 39.2835
1 25.4897 41.7427 31.057
1 39.0658 14.6727 7.01874
1 45.9539 47.3034 11.2611
1 44.1641 48.0584 30.6488
1 37.2237 52.3571 30.3354
1 37.0034 5.5454 21.1441
1 13.2371 10.1373 44.2684
1 6.71789 1.08139 41.6228
1 39.043 18.8553 53.8096
1 33.7983 54.0847 31.9506
1 38.1986 0.780278 39.6492
1 35.693 47.1011 42.1788
1 41.4892 53.6216 26.291
1 44.6375 28.5511 13.1399
1 21.5083 1.52923 34.2156
1 43.9203 43.4188 11.1806
1 31.9265 48.9821 40.5841
1 41.095 9.86974 10.9347
1 34.5253 47.7194 41.7349
1 24.4671 2.65941 49.6774
1 46.062 33.1871 9.43761
1 43.0107 18.1882 17.8159
1 3.90085 19.8006 0.482449
1 33.6874 6.29995 35.8153
1 19.3998 53.5932 21.5936
1 12.2079 2.71049 44.3224
1 34.454 15.5505 52.7351
1 25.643 43.3166 35.1536
1 14.9925 7.81342 43.9919
1 15.0732 8.82398 43.024
1 44.6839 54.24 24.6766
1 25.9459 21.8904 36.6581
1 49.2874 29.3978 11.043
1 3.15147 22.8398 9.07897
1 23.1426 48.9406 27.9998
1 42.6352 22.0364 17.0409
1 34.2608 8.21187 29.5642
1 27.2493 50.6634 37.3459
1 33.6564 51.363 44.4338
1 36.0344 50.9078 34.3736
1 30.8754 44.1349 1.03408
1 38.5428 10.9846 25.4983
1 30.1984 45.1383 41.2703
1 49.1758 28.0989 11.5776
1 38.7591 31.0811 14.1377
1 32.0686 4.40481 25.6191
1 49.3926 17.9165 16.2555
1 40.3351 48.3142 34.4659
1 37.1585 8.15971 28.5883
1 36.4067 3.84107 23.3531
1 22.3262 53.3021 31.5111
1 45.1487 22.3276 50.414
1 51.7541 10.6554 20.2669
1 48.6921 -0.0473022 35.7496
1 37.3834 38.3351 11.011
1 8.01032 2.52021 40.3284
1 22.4222 13.3033 26.0288
1 44.7027 44.4747 11.5628
1 34.8935 9.30516 28.5075
1 51.8236 8.79793 9.28958
1 27.1726 3.00383 33.8829
1 42.7944 9.39278 25.9813
1 37.0166 46.9297 41.6504
1 47.6528 31.4472 10.5856
1 17.7451 23.7538 49.0924
1 36.3999 1.01385 52.5915
1 30.8945 35.0918 20.6619
1 40.9992 51.6162 28.6952
1 2.4701 4.56052 20.2864
1 30.3512 53.6881 44.462
1 36.25 11.7881 25.0063
1 36.4383 25.8929 34.7845
1 33.2513 49.0569 39.9451
1 31.6479 43.5447 47.3414
1 49.7841 5.84517 11.2574
1 32.7253 53.0705 34.6291
1 49.1434 47.5656 29.1165
1 48.1328 20.1341 15.0412
1 10.9321 53.9315 16.8039
1 33.9917 46.5473 46.2463
1 11.8552 25.2642 1.70312
1 41.2292 47.2759 36.6444
1 34.1729 4.1061 24.4592
1 30.8424 2.10229 32.4518
1 40.8063 12.985 8.34514
1 2.88274 2.21831 36.3494
1 31.0351 50.7019 42.0384
1 12.0004 13.7734 44.0459
1 32.6919 0.278236 32.6207
1 11.4574 43.1722 1.41939
1 35.5154 52.4897 32.1547
1 24.3178 48.6356 29.9634
1 41.2955 2.81637 22.6914
1 15.708 34.276 51.8836
1 46.1297 23.5188 31.3013
1 43.5638 4.24776 21.137
1 43.8129 52.569 43.0165
1 19.0883 10.656 3.42835
1 43.8357 10.1913 25.363
1 40.4543 17.0374 18.392
1 44.1731 6.57038 28.0951
1 25.0254 46.0444 29.8191
1 41.6748 44.5923 11.6427
1 43.5303 10.7248 11.7274
1 45.5723 26.2506 13.3015
1 7.36873 1.35631 42.8777
1 41.2384 52.4575 49.2595
1 53.7565 2.6649 33.2672
1 26.0021 2.01234 45.8263
1 35.2902 50.0794 36.6254
1 40.4097 21.2075 18.2266
1 42.8223 46.74 38.4894
1 38.8577 8.90053 26.9551
1 53.6148 4.42165 7.86635
1 27.6607 18.59 43.3938
1 34.6521 3.13749 25.3485
1 31.279 43.7527 44.5713
1 35.1029 25.8667 37.0989
1 21.8354 48.6258 12.38
1 51.6033 20.7321 13.9864
1 23.0493 47.3201 10.5974
1 31.3914 9.79788 33.1332
1 37.9033 26.1714 34.0185
1 31.9082 53.1537 44.4639
1 48.5994 5.00824 19.2175
1 39.0587 24.5822 17.6307
1 34.7299 4.7554 44.6256
1 39.1526 20.319 17.888
1 38.8252 9.81784 19.3266
1 46.447 7.96443 26.4894
1 27.1947 39.8024 50.2543
1 43.8032 20.007 16.9399
1 1.8792 13.255 0.7484
1 2.0941 4.77896 30.3169
1 22.8286 26.8878 41.0563
1 38.7137 15.7554 24.7829
1 43.7964 16.6627 25.1175
1 41.7227 5.95548 29.171
1 45.0076 0.743822 35.4239
1 36.8891 49.0349 10.7374
1 30.1979 53.6306 35.4845
1 44.1141 1.34422 34.6803
1 7.05666 24.2888 6.17697
1 33.1489 6.57743 43.359
1 32.423 8.45835 44.6397
1 33.5315 45.3139 48.554
1 37.3043 4.20901 33.4532
1 39.9473 0.34327 37.8741
1 24.8587 41.9849 35.074
1 36.7798 33.1975 14.979
1 33.626 23.1653 44.4692
1 40.1363 33.9919 10.177
1 13.7137 36.9071 54.0577
1 14.4123 19.5222 0.639174
1 9.18646 45.9309 2.89189
1 6.71698 17.7609 16.581
1 25.2829 36.9786 33.311
1 15.222 41.6118 0.495998
1 23.5953 1.83523 42.2991
1 27.3067 14.6925 33.8938
1 34.6033 6.289 0.740941
1 26.9758 33.0323 28.2896
1 31.4508 0.391585 2.19125
1 20.8628 7.17466 37.8679
1 18.3182 5.17422 44.3968
1 26.103 40.3682 41.2027
1 41.4102 47.6646 35.1705
1 34.6903 4.92779 0.0428066
1 22.2907 7.98197 2.49183
1 48.0408 14.967 7.36788
1 24.9055 27.7287 34.8999
1 3.756 21.6497 9.61308
1 52.2186 23.8538 38.834
1 42.4093 2.86638 33.0793
1 34.8202 49.6595 37.9125
1 20.7872 3.95934 48.3593
1 49.7042 10.2955 10.6518
1 3.90448 2.10119 37.2405
1 50.0741 20.5918 14.0639
1 41.9526 0.90864 24.454
1 29.7722 0.793939 50.2017
1 32.6497 46.533 3.27039
1 21.8039 3.28056 43.5044
1 25.2822 33.193 31.7974
1 9.97139 6.13973 50.8152
1 38.0804 34.763 11.6145
1 32.4102 1.81018 30.845
1 10.0164 39.8298 1.98036
1 17.1257 45.5148 6.83728
1 38.4857 50.213 32.9299
1 42.4577 18.4217 2.1248
1 47.5858 11.0256 0.423317
1 3.63097 4.35744 25.0907
1 35.2924 5.34878 4.40691
1 28.9797 1.5804 52.583
1 38.6115 2.23294 36.3865
1 50.9892 51.5413 8.03053
1 37.2371 47.6891 40.3514
1 45.8036 1.99219 33.0484
1 25.2022 43.8589 30.4399
1 30.978 51.8874 42.825
1 14.8921 8.82211 1.773
1 25.4872 40.3184 38.3913
1 34.9046 9.06257 1.63569
1 15.4926 29.2369 50.9828
1 21.2887 50.5924 15.822
1 12.1649 5.35786 50.5296
1 37.7664 16.4617 4.03278
1 31.5903 22.6026 43.0928
1 9.79414 4.99063 2.02322
1 28.7786 20.9716 28.3991
1 43.7728 3.20963 22.0422
1 53.2213 5.05792 27.0813
1 35.3808 19.0902 25.936
1 22.2931 3.74789 50.2396
1 26.5705 2.18981 48.2651
1 14.9679 30.4563 51.8821
1 44.9523 52.9663 38.8652
1 3.20425 22.6438 33.1836
1 12.4352 31.193 0.0932486
1 23.779 47.7674 25.7918
1 13.68 39.3786 40.5081
1 26.8266 5.96147 31.0081
1 9.62032 1.47124 44.8945
1 30.4743 15.6956 45.7831
1 26.0839 10.8223 24.4913
1 45.6369 3.44564 31.118
1 42.1968 49.0803 29.7557
1 39.8457 46.8079 40.539
1 33.3116 33.3717 18.8891
1 53.4811 1.12157 36.0769
1 34.2694 21.7614 46.3493
1 24.249 2.11007 43.5307
1 14.2464 27.822 52.8556
1 12.0826 4.21679 35.5398
1 33.1986 48.104 7.29718
1 35.6388 3.91217 41.888
1 46.9196 1.27023 33.8105
1 27.8934 12.6606 35.6323
1 33.9781 10.8866 0.133671
1 29.663 48.5715 39.4265
1 44.9239 19.0856 2.19154
1 50.2851 51.8829 9.13813
1 33.0862 7.02564 42.0428
1 46.1269 0.499578 13.1015
1 43.5479 2.54996 32.4467
1 38.7398 18.0204 2.85321
1 32.4276 0.688997 4.27051
1 14.9468 33.1469 52.0459
1 40.7813 12.8443 18.657
1 19.8849 3.75915 45.6519
1 3.35629 18.5863 48.8254
1 45.1406 8.90827 12.7302
1 25.926 41.9228 28.8082
1 50.8168 0.723798 19.9797
1 39.3637 16.3349 18.3035
1 9.04148 49.3047 5.35787
1 41.0683 5.40925 30.6419
1 31.2464 6.21535 23.606
1 30.7584 10.2745 34.1531
1 29.5455 19.7361 44.676
1 34.8856 47.6812 46.9494
1 32.1882 0.22653 50.221
1 52.6023 0.825361 34.8793
1 53.874 16.45 18.6846
1 28.9613 10.9694 39.3913
1 12.7985 28.864 0.268176
1 44.8264 51.8145 12.9377
1 37.5139 46.9918 12.2139
1 28.6987 44.7947 39.5019
1 49.973 50.2653 24.492
1 20.8724 20.6379 44.8661
1 45.623 27.5979 12.8364
1 39.7145 48.2955 12.784
1 11.1982 8.31244 2.95665
1 21.1488 30.5507 44.3898
1 40.18 7.91512 11.7773
1 40.5239 1.26836 24.2848
1 37.1691 1.64383 40.3687
1 21.9952 7.32182 35.5709
1 26.7609 41.4983 -0.0852021
1 30.4007 44.78 2.30835
1 21.8641 6.31115 0.367144
1 43.948 50.5352 13.349
1 52.7261 18.5214 0.174058
1 33.2202 53.3638 48.0877
1 41.207 9.9623 26.0766
1 35.1857 53.6787 29.8837
1 40.4572 14.3329 7.65368
1 44.3127 3.65725 31.643
1 30.4584 25.3415 23.4509
1 31.309 42.5024 49.3711
1 9.04429 50.4635 6.16808
1 5.02376 23.7065 7.56079
1 5.06331 21.3433 8.93908
1 27.9868 4.20004 4.71563
1 34.7265 5.95034 48.2152
1 50.5406 49.0294 8.13171
1 4.5765 47.1121 1.4861
1 18.0086 7.806 0.281022
1 43.2612 4.53422 31.0283
1 37.6836 5.03206 32.3791
1 34.7685 5.06073 41.9901
1 12.4103 0.175811 19.166
1 16.7026 50.9587 13.4641
1 24.3181 6.75432 1.55887
1 33.4176 2.66051 26.4038
1 37.7034 51.2754 32.2924
1 50.9011 48.2923 24.4724
1 45.7802 48.2192 28.1768
1 38.6635 0.122401 10.6078
1 13.1581 19.0137 28.2674
1 42.5801 0.0078113 25.4537
1 32.6885 47.6571 5.99544
1 7.96631 52.3392 7.07974
1 23.5698 1.73948 39.878
1 43.9475 15.9223 5.81073
1 41.584 48.4227 32.2598
1 23.4346 2.43717 44.8425
1 29.8588 17.0957 45.7535
1 41.3513 26.916 15.2437
1 10.8675 29.228 2.73681
1 41.8807 2.21483 34.3847
1 24.8495 40.9292 36.0957
1 44.6601 0.211726 13.3449
1 39.0019 23.1711 18.0034
1 44.8176 19.8068 0.781218
1 48.0644 47.9356 26.7238
1 52.4856 15.1424 16.8048
1 32.6806 20.1515 47.09
1 50.1055 53.8191 10.8819
1 34.1298 43.8995 12.0959
1 33.4704 49.8493 38.6974
1 51.4159 0.375111 35.1591
1 45.7781 45.8465 34.8324
1 6.63531 53.8999 46.7746
1 21.0675 7.75798 36.5611
1 4.44928 18.9706 20.9321
1 1.35396 19.7819 49.849
1 28.5865 50.2636 38.3613
1 53.0695 48.9753 20.9433
1 11.4928 17.0366 9.36696
1 24.0846 3.9292 51.7503
1 38.9503 2.80211 23.2856
1 25.0668 32.3851 32.9527
1 25.0798 44.0173 32.8731
1 0.233098 54.3162 37.9523
1 28.4953 2.49809 0.470418
1 34.281 19.5247 49.2975
1 46.6057 6.83731 12.8154
1 45.1373 5.29442 29.6581
1 41.3205 17.8182 4.24989
1 28.8462 21.9719 42.7881
1 35.8565 2.45002 25.4408
1 34.8918 12.9545 1.81195
1 -0.194185 4.94027 28.21
1 52.7996 20.7169 51.5005
1 11.3321 3.26348 42.3295
1 26.8355 49.7659 35.0937
