LAMMPS (22 Jul 2025 - Update 2)
# LAMMPS input for LJ binary mixture with Widom insertion
# Equal sigma, different epsilon

# Initialize
units           lj
atom_style      atomic
boundary        p p p

# Create simulation box
lattice         fcc 0.8
Lattice spacing in x,y,z = 1.7099759 1.7099759 1.7099759
region          box block 0 15 0 15 0 15
create_box      2 box
Created orthogonal box = (0 0 0) to (25.649639 25.649639 25.649639)
  2 by 2 by 2 MPI processor grid
create_atoms    1 box
Created 13500 atoms
  using lattice units in orthogonal box = (0 0 0) to (25.649639 25.649639 25.649639)
  create_atoms CPU = 0.002 seconds

# Set masses (both equal to 1.0 in reduced units)
mass            1 1.0
mass            2 1.0

# Set up 50:50 mixture
set             group all type/fraction 2 0.5 12345
Setting atom values ...
  6702 settings made for type/fraction

# Define groups
group           typeA type 1
6798 atoms in group typeA
group           typeB type 2
6702 atoms in group typeB

# LJ parameters
pair_style      lj/cut 3.0
pair_modify     tail yes
pair_coeff      1 1 0.8 1.0    # A-A interaction
pair_coeff      2 2 1.2 1.0    # B-B interaction
pair_coeff      1 2 0.2 1.0 # A-B interaction

# Initial velocities
velocity        all create 5.0 55555 dist gaussian

# Neighbor list
neighbor        0.3 bin
neigh_modify    every 1 delay 0 check yes

# Time integration (NPT)
fix             1 all npt temp 5.0 5.0 $(100*dt) iso 1.0 1.0 $(1000*dt)
fix             1 all npt temp 5.0 5.0 0.5 iso 1.0 1.0 $(1000*dt)
fix             1 all npt temp 5.0 5.0 0.5 iso 1.0 1.0 5
timestep        0.005

# Output including enthalpy
thermo_style    custom step temp pe ke etotal press density enthalpy vol
thermo          1000

# Equilibration
run             10000
Generated 0 of 1 mixed pair_coeff terms from geometric mixing rule
Neighbor list info ...
  update: every = 1 steps, delay = 0 steps, check = yes
  max neighbors/atom: 2000, page size: 100000
  master list distance cutoff = 3.3
  ghost atom cutoff = 3.3
  binsize = 1.65, bins = 16 16 16
  1 neighbor lists, perpetual/occasional/extra = 1 0 0
  (1) pair lj/cut, perpetual
      attributes: half, newton on
      pair build: half/bin/atomonly/newton
      stencil: half/bin/3d
      bin: standard
Per MPI rank memory allocation (min/avg/max) = 3.606 | 3.606 | 3.606 Mbytes
   Step          Temp          PotEng         KinEng         TotEng         Press         Density        Enthalpy        Volume    
         0   5             -4.0407837      7.4994444      3.4586608     -0.088736676    0.8            3.3477399      16875        
      1000   4.9899602     -1.115582       7.4843859      6.3688039      7.3035335      0.6281783      17.995333      21490.714    
      2000   4.974738      -1.0378721      7.4615543      6.4236821      5.0296396      0.51904044     16.113948      26009.534    
      3000   4.9886106     -0.96296053     7.4823616      6.5194011      3.7368674      0.44246146     14.965035      30511.132    
      4000   4.9926219     -0.8661892      7.4883782      6.622189       2.9974411      0.3851182      14.405361      35054.173    
      5000   4.9849824     -0.74914193     7.4769197      6.7277778      2.5237444      0.3403673      14.142545      39663.035    
      6000   4.9997262     -0.71024698     7.4990337      6.7887867      2.1356977      0.30477422     13.796262      44295.086    
      7000   4.996958      -0.64794396     7.4948818      6.8469378      1.857703       0.27606315     13.576206      48901.855    
      8000   5.0307366     -0.57903849     7.5455459      6.9665074      1.6859912      0.25265829     13.639517      53431.851    
      9000   5.0238711     -0.55230794     7.5352485      6.9829405      1.4984342      0.23368077     13.395253      57771.12     
     10000   4.943239      -0.53691472     7.4143093      6.8773946      1.3404926      0.2181908      13.021066      61872.454    
Loop time of 49.1818 on 8 procs for 10000 steps with 13500 atoms

Performance: 87837.346 tau/day, 203.327 timesteps/s, 2.745 Matom-step/s
73.2% CPU use with 8 MPI tasks x no OpenMP threads

MPI task timing breakdown:
Section |  min time  |  avg time  |  max time  |%varavg| %total
---------------------------------------------------------------
Pair    | 7.2892     | 7.4243     | 7.5294     |   3.3 | 15.10
Neigh   | 8.9873     | 9.1077     | 9.2748     |   3.5 | 18.52
Comm    | 16.32      | 16.771     | 17.244     |   6.2 | 34.10
Output  | 0.00058629 | 0.00078368 | 0.00081646 |   0.0 |  0.00
Modify  | 12.767     | 13.015     | 13.174     |   4.0 | 26.46
Other   |            | 2.863      |            |       |  5.82

Nlocal:         1687.5 ave        1761 max        1625 min
Histogram: 1 0 2 0 2 1 1 0 0 1
Nghost:        2314.62 ave        2387 max        2263 min
Histogram: 2 0 0 2 2 1 0 0 0 1
Neighs:        27458.6 ave       29597 max       25650 min
Histogram: 1 1 1 0 1 2 1 0 0 1

Total # of neighbors = 219669
Ave neighs/atom = 16.271778
Neighbor list builds = 3283
Dangerous builds = 0

dump            1 all custom 1000 dump.lammpstrj id type x y z
dump_modify     1 sort id

# production
thermo_style    custom step temp pe enthalpy press vol
thermo          1000
run             100000
Generated 0 of 1 mixed pair_coeff terms from geometric mixing rule
Per MPI rank memory allocation (min/avg/max) = 3.637 | 3.637 | 3.637 Mbytes
   Step          Temp          PotEng        Enthalpy        Press          Volume    
     10000   4.943239      -0.53691472     13.021066      1.3404926      61872.454    
     11000   4.9642411     -0.50441477     13.031199      1.2523396      65647.011    
     12000   4.9988107     -0.48591724     13.034995      1.179241       68954.431    
     13000   5.0071859     -0.44692054     13.150296      1.143458       71864.828    
     14000   4.9782791     -0.45417753     12.98802       1.084869       74356.426    
     15000   4.9849323     -0.43098083     12.942198      1.0442413      76228.076    
     16000   5.033254      -0.42164695     13.098646      1.038403       77627.005    
     17000   5.0156608     -0.43139473     12.962462      1.0080333      78625.836    
     18000   4.9505663     -0.421483       12.849746      0.99812628     79068.2      
     19000   5.0199287     -0.45132793     12.880152      0.98801375     79279.209    
     20000   5.0205812     -0.42285915     13.028294      1.0069835      79376.999    
     21000   5.0113764     -0.43482269     12.951357      1.0000068      79240.034    
     22000   4.9753161     -0.41184029     12.954015      1.0008327      79630.046    
     23000   4.9577873     -0.42536539     12.836863      0.98944184     79491.607    
     24000   4.9783326     -0.4160412      12.93359       1.0003532      79388.213    
     25000   5.0445715     -0.40953416     13.135131      1.0102083      79892.403    
     26000   4.9814194     -0.43172423     12.868994      0.99899224     78772.803    
     27000   4.9459378     -0.45307184     12.675262      0.98694458     78104.374    
     28000   5.0192739     -0.4414139      12.898496      0.98574157     79590.861    
     29000   5.0079984     -0.41080029     12.992419      1.0012996      79435.768    
     30000   4.9925918     -0.4185658      12.923214      0.99484222     79431.215    
     31000   4.9536956     -0.42094783     12.801364      0.98308885     79541.45     
     32000   4.9882825     -0.42837138     12.907004      1.003628       78736.676    
     33000   5.0216762     -0.42177249     13.008608      1.0048723      79242.625    
     34000   4.995245      -0.42462029     12.842258      0.96744231     80580.146    
     35000   4.9812355     -0.41626294     12.950397      1.0063117      79088.174    
     36000   4.9914211     -0.42092587     12.964457      1.0031338      79385.099    
     37000   5.0154232     -0.41230027     13.008857      0.99922647     79692.471    
     38000   5.0210181     -0.41987492     13.062414      1.0197917      78783.56     
     39000   4.9483062     -0.4125012      12.86084       0.99440349     79438.905    
     40000   4.9947279     -0.42424847     12.896312      0.97880029     80396.188    
     41000   4.9908804     -0.44107956     12.794388      0.98533677     78776.088    
     42000   4.9932293     -0.41701107     12.923191      0.99625386     79284.332    
     43000   4.9940296     -0.41013687     13.001823      0.99738904     80149.117    
     44000   5.0147714     -0.41215211     13.039476      1.0131843      79013.641    
     45000   5.0122508     -0.40538029     13.081149      1.0170907      79223.594    
     46000   4.9847348     -0.39856503     13.032668      0.99971853     80410.879    
     47000   4.9282005     -0.4142455      12.870884      1.0072361      78989.01     
     48000   4.9936184     -0.43393425     12.867155      0.99532745     78819.717    
     49000   5.0489671     -0.40808201     13.150276      1.0121188      79836.301    
     50000   5.0074829     -0.42400484     12.980381      1.0061559      79078.394    
     51000   4.9274061     -0.42155731     12.746667      0.98195586     79431.726    
     52000   5.019611      -0.42160183     13.008987      0.99777158     79851.293    
     53000   4.9800636     -0.41249713     12.966834      1.0108226      78927.944    
     54000   4.9691602     -0.40212489     12.997918      1.0100881      79480.734    
     55000   4.9722383     -0.40282071     12.978119      0.99534067     80336.641    
     56000   5.0160269     -0.40882069     13.084086      1.0219851      78853.616    
     57000   4.9856225     -0.39908936     13.076774      1.0203817      79355.376    
     58000   4.9237187     -0.3956559      12.909243      0.99984635     79930.496    
     59000   4.969084      -0.41397382     12.93425       1.0105839      78751.026    
     60000   5.0462943     -0.43271549     12.97749       0.99595866     79177.873    
     61000   5.0456094     -0.40061631     13.165883      1.0084759      80301.088    
     62000   4.9374827     -0.41397766     12.861293      1.0021791      79067.241    
     63000   5.0184312     -0.41362623     13.121784      1.0332761      78500.148    
     64000   4.9901191     -0.41142289     13.001696      0.99980003     80050.688    
     65000   4.9404439     -0.41626366     12.852218      0.9941048      79556.926    
     66000   5.0407723     -0.42863218     13.030553      1.0109308      78769.896    
     67000   5.0364494     -0.42021596     13.039815      0.99946739     79772.366    
     68000   5.0391635     -0.41726082     13.079591      1.0087762      79474.507    
     69000   4.9545591     -0.42654017     12.836537      0.99674385     78986.345    
     70000   4.958599      -0.4410066      12.732108      0.98088995     78941.429    
     71000   5.0290122     -0.41699436     13.008295      0.98221784     80849.13     
     72000   4.9936348     -0.42285863     12.964956      1.0069086      79075.582    
     73000   5.0671067     -0.42431771     13.148959      1.0185235      79171.401    
     74000   5.0054642     -0.40987091     13.034011      1.0074         79550.598    
     75000   4.9587184     -0.43319558     12.843509      0.9937777      79322.476    
     76000   4.9625521     -0.43401533     12.7821        0.98291149     79288.244    
     77000   5.0567912     -0.4209768      13.075505      1.0010601      79725.545    
     78000   4.99864       -0.42916519     12.848232      0.97317166     80181.021    
     79000   4.9659449     -0.42507515     12.90144       1.0190744      77869.704    
     80000   4.9921112     -0.38748085     13.166464      1.0323505      79329.151    
     81000   5.0449028     -0.42504724     13.069686      1.0057618      79568.728    
     82000   4.9743846     -0.4242855      12.855654      0.99082704     79282.611    
     83000   4.9440367     -0.4155262      12.836448      0.99541922     79154.918    
     84000   4.940852      -0.42479647     12.796231      0.98401846     79712.971    
     85000   4.9860272     -0.41969292     12.944997      1.0019134      79311.983    
     86000   4.9984486     -0.43724778     12.942654      1.0133982      78367.61     
     87000   5.007886      -0.42778186     12.932013      0.980336       80538.77     
     88000   4.9793712     -0.43582327     12.860837      0.9861851      79782.296    
     89000   5.0503688     -0.41410491     13.151975      1.0256149      78859.708    
     90000   5.0375677     -0.42318459     13.016664      0.99708223     79667.217    
     91000   5.0190475     -0.40746565     13.04814       1.0065576      79501.151    
     92000   4.9847802     -0.42532155     12.87046       0.98873065     79454.131    
     93000   4.9727124     -0.42771851     12.86297       0.99261167     79320.378    
     94000   5.0060081     -0.41673014     12.935976      0.97873879     80611.274    
     95000   4.9848138     -0.40926979     12.983495      0.99833245     80000.722    
     96000   4.9753789     -0.40768128     12.973426      1.0168124      78579.873    
     97000   5.0338851     -0.42633632     12.990643      0.99660891     79470.09     
     98000   5.0736687     -0.43612378     13.07943       0.99946615     79768.378    
     99000   4.9912478     -0.41380606     12.985313      1.0055102      79385.388    
    100000   4.9589565     -0.43046922     12.807685      0.98888555     79183.731    
    101000   5.0273885     -0.42886894     13.005416      0.99813663     79714.308    
    102000   5.0229962     -0.43462147     12.945925      0.99239894     79533.775    
    103000   4.9738186     -0.42820694     12.893818      1.0150863      77958.858    
    104000   5.0552346     -0.42870517     13.037447      0.9944827      79872.817    
    105000   5.0017069     -0.4121322      12.980745      0.99768845     79711.033    
    106000   4.980919      -0.40308137     13.01719       1.0140361      79205.786    
    107000   4.9705932     -0.42401225     12.872473      0.98778635     79830.512    
    108000   5.0444316     -0.41832786     13.110118      1.0181385      79057.849    
    109000   5.017174      -0.41954993     13.05388       1.0177117      78903.537    
    110000   4.9218216     -0.42868806     12.695144      0.9629684      80493.019    
Loop time of 169.273 on 8 procs for 100000 steps with 13500 atoms

Performance: 255209.700 tau/day, 590.763 timesteps/s, 7.975 Matom-step/s
93.1% CPU use with 8 MPI tasks x no OpenMP threads

MPI task timing breakdown:
Section |  min time  |  avg time  |  max time  |%varavg| %total
---------------------------------------------------------------
Pair    | 35.596     | 35.814     | 35.984     |   2.3 | 21.16
Neigh   | 63.324     | 63.526     | 63.74      |   2.0 | 37.53
Comm    | 42.157     | 42.507     | 42.855     |   3.6 | 25.11
Output  | 0.28495    | 0.30365    | 0.32481    |   2.5 |  0.18
Modify  | 22.125     | 22.175     | 22.254     |   0.7 | 13.10
Other   |            | 4.947      |            |       |  2.92

Nlocal:         1687.5 ave        1778 max        1616 min
Histogram: 1 1 1 1 1 1 0 1 0 1
Nghost:        2088.75 ave        2132 max        2035 min
Histogram: 1 0 0 2 1 1 0 1 0 2
Neighs:          21064 ave       23209 max       19211 min
Histogram: 1 1 1 1 0 1 2 0 0 1

Total # of neighbors = 168512
Ave neighs/atom = 12.48237
Neighbor list builds = 32597
Dangerous builds = 0

write_data      final_config_1.data
System init for write_data ...
Generated 0 of 1 mixed pair_coeff terms from geometric mixing rule
WARNING: Not all mixed pair coeffs generated from mixing. Use write_data with 'pair ij' option to store all pair coeffs. (src/write_data.cpp:364)

unfix 1
fix 2 all npt temp 1.0 1.0 $(100*dt) iso 1.0 1.0 $(1000*dt)
fix 2 all npt temp 1.0 1.0 0.5 iso 1.0 1.0 $(1000*dt)
fix 2 all npt temp 1.0 1.0 0.5 iso 1.0 1.0 5

run 100000
Generated 0 of 1 mixed pair_coeff terms from geometric mixing rule
Per MPI rank memory allocation (min/avg/max) = 5.07 | 5.07 | 5.07 Mbytes
   Step          Temp          PotEng        Enthalpy        Press          Volume    
    110000   4.9218216     -0.42868806     12.695144      0.9629684      80493.019    
    111000   1.0091095     -1.0992994      1.023854       0.13929075     59082.292    
    112000   0.9972311     -1.5218345      0.47697737     0.14821661     45821.626    
    113000   1.0048484     -1.9789262     -0.013424505    0.16686643     37081.158    
    114000   0.99831536    -2.4672933     -0.63391338     0.14687493     30885.052    
    115000   0.99126352    -2.9787232     -1.1036548      0.19919721     26314.742    
    116000   1.0013273     -3.49475       -1.4245858      0.33426096     22951.652    
    117000   1.0036378     -3.9025619     -1.5586777      0.54979591     20589.962    
    118000   1.0077991     -4.2152487     -1.6091719      0.77128264     19157.202    
    119000   0.9970648     -4.3944358     -1.6490192      0.91144427     18513.538    
    120000   1.0002855     -4.4862154     -1.6481531      0.98817541     18275.664    
    121000   1.0027254     -4.5502539     -1.6348382      1.0453005      18228.66     
    122000   0.99655049    -4.571884      -1.7247606      1.0050241      18166.245    
    123000   0.9980447     -4.6280625     -1.8086169      0.9847984      18129.201    
    124000   1.0026294     -4.6190918     -1.760786       1.0084553      18132.075    
    125000   0.9924263     -4.648532      -1.805531       1.0077238      18145.218    
    126000   0.9978044     -4.6784165     -1.8141417      1.0213903      18076.994    
    127000   0.98981202    -4.6720004     -1.851129       0.99744919     18085.689    
    128000   0.99606252    -4.7025635     -1.8473832      1.0201493      18013.209    
    129000   1.0038027     -4.7319875     -1.9125341      0.98554264     17997.317    
    130000   1.0059433     -4.7409569     -1.8648549      1.028209       17952.122    
    131000   0.99284233    -4.7727118     -1.920014       1.0280856      17904.98     
    132000   1.0028566     -4.7482834     -1.918823       0.99466827     17987.278    
    133000   0.99591177    -4.7666429     -1.9414137      0.99936775     17986.246    
    134000   1.0181695     -4.8044362     -1.8913686      1.0454099      17897.293    
    135000   1.000936      -4.8072088     -2.0044655      0.97893587     17947.633    
    136000   0.99835202    -4.8059337     -2.0268642      0.96398836     17948.667    
    137000   0.99252444    -4.814882      -2.0216563      0.98020649     17967.047    
    138000   0.99292773    -4.8256712     -1.9753665      1.0270345      17890.164    
    139000   0.98016477    -4.8130479     -2.0057942      1.0030252      17996.615    
    140000   0.99423178    -4.8209444     -2.075787       0.94151042     17979.537    
    141000   0.99845871    -4.8598901     -2.104467       0.94802174     17911.953    
    142000   0.99124391    -4.8522785     -2.0224649      1.0122568      17911.741    
    143000   0.99015934    -4.8608941     -2.0722666      0.98372917     17888.286    
    144000   0.99090619    -4.8603103     -2.0918597      0.96600888     17918.799    
    145000   0.99953963    -4.849771      -1.993334       1.0241495      17890.67     
    146000   1.0023839     -4.863183      -1.9673333      1.0514293      17877.759    
    147000   0.99421835    -4.9156378     -2.1109302      0.99817983     17764.457    
    148000   1.007838      -4.9290041     -2.0585928      1.0301346      17806.746    
    149000   1.0017276     -4.905573      -2.0855649      0.99489288     17877.934    
    150000   0.99654798    -4.9028674     -2.1345319      0.95975222     17914.965    
    151000   0.99807173    -4.9413189     -2.1496789      0.98085858     17818.761    
    152000   1.0079404     -4.9609218     -2.0609074      1.0568         17733.64     
    153000   1.0040434     -4.9552253     -2.1394401      0.99386395     17791.9      
    154000   0.99815688    -4.9981802     -2.1503083      1.0275963      17745.385    
    155000   0.98951948    -5.0102785     -2.2489479      0.97026506     17770.071    
    156000   1.0046213     -5.0028049     -2.1238242      1.0400706      17810.488    
    157000   1.0118277     -5.0289216     -2.1657134      1.027244       17683.546    
    158000   0.99634862    -5.0375373     -2.1587629      1.0566834      17686.366    
    159000   1.0109139     -5.062373      -2.1110886      1.1025123      17571.548    
    160000   0.98683847    -5.0318236     -2.3546629      0.9108216      17741.863    
    161000   0.99236675    -5.0443225     -2.2231502      1.0190251      17655.981    
    162000   1.0042287     -5.0617563     -2.2478212      1.0004414      17646.211    
    163000   1.0103882     -5.0163981     -2.210891       0.97996272     17771.596    
    164000   0.98663632    -5.0655454     -2.2519868      1.0219086      17619.125    
    165000   0.99545215    -5.0457638     -2.2336233      1.0062248      17697.322    
    166000   0.99989873    -5.029849      -2.0919544      1.0949737      17731.137    
    167000   0.99703295    -5.0589095     -2.2117433      1.0324912      17674.07     
    168000   0.99254977    -5.0778387     -2.2200856      1.0505511      17592.693    
    169000   0.99196005    -5.0379567     -2.3549214      0.90612751     17806.846    
    170000   1.0078786     -5.0541119     -2.1695194      1.0503345      17645.778    
    171000   0.99400423    -5.0339068     -2.2945709      0.94917696     17756.373    
    172000   1.0046342     -5.0399872     -2.2344521      0.9889493      17728.299    
    173000   1.0063243     -5.0587937     -2.2515009      0.99203981     17662.492    
    174000   0.99707681    -5.0492275     -2.2489818      0.99416703     17717.352    
    175000   0.99002516    -5.0338329     -2.2592778      0.97993354     17766.48     
    176000   1.0064159     -5.0433191     -2.3338882      0.91158416     17770.059    
    177000   1.0026939     -5.062195      -2.1510097      1.0793663      17601.025    
    178000   1.0122138     -5.0485733     -2.2109999      1.005934       17706.359    
    179000   0.99534362    -5.059018      -2.3306677      0.94273228     17691.676    
    180000   1.0009074     -5.0250158     -2.2170828      0.99387422     17748.947    
    181000   1.003861      -5.0311658     -2.2679832      0.9558236      17760.897    
    182000   1.0086256     -5.0446253     -2.2068619      1.0105936      17699.152    
    183000   1.0047581     -5.0345164     -2.2445608      0.97639741     17738.225    
    184000   0.98763568    -5.0464392     -2.3178516      0.94995824     17724.771    
    185000   1.0100679     -5.0418453     -2.0995019      1.0919467      17646.72     
    186000   0.99568807    -5.0445992     -2.1815607      1.0478404      17645.656    
    187000   0.99028465    -5.0509299     -2.2274175      1.0188484      17731.43     
    188000   1.0091416     -5.0485914     -2.2219167      1.0021909      17687.754    
    189000   0.9931804     -5.0507918     -2.2409893      1.0085265      17671.247    
    190000   1.0018409     -5.0140462     -2.2969183      0.91933827     17833.969    
    191000   1.0073424     -5.0488825     -2.2366721      0.99251546     17700.145    
    192000   0.99505643    -5.0653695     -2.2714452      0.99684598     17625.169    
    193000   0.99462601    -5.0589756     -2.2091563      1.037041       17678.063    
    194000   1.0050396     -5.0420337     -2.3028394      0.93709785     17744.763    
    195000   0.99794692    -5.0149361     -2.2423962      0.9658662      17830.999    
    196000   0.99625148    -5.0543383     -2.2647023      0.98838238     17693.04     
    197000   1.006077      -5.06045       -2.2394295      0.99939522     17722.946    
    198000   1.0082459     -5.0434149     -2.1458475      1.0569736      17693.624    
    199000   0.99677474    -5.0662625     -2.1566044      1.0836448      17623.11     
    200000   1.008351      -5.0303074     -2.2697858      0.94666006     17798.834    
    201000   1.0061981     -5.0523213     -2.2108057      1.0167417      17690.291    
    202000   1.0069073     -5.032337      -2.206783       1.0012882      17733.773    
    203000   0.99726916    -5.0641252     -2.2524474      1.0044635      17685.506    
    204000   1.0096167     -5.04604       -2.2982418      0.93856485     17742.037    
    205000   1.0020265     -5.0478826     -2.1235394      1.0874404      17646.115    
    206000   0.98722835    -5.0555941     -2.2996278      0.97292529     17694.731    
    207000   0.99295568    -5.0405104     -2.2415906      0.99596221     17751.231    
    208000   1.0097195     -5.014663      -2.1229542      1.0436051      17815.899    
    209000   0.98180722    -5.0624636     -2.3180108      0.97161276     17671.639    
    210000   1.0007157     -5.044783      -2.3087233      0.93983177     17741.275    
Loop time of 324.132 on 8 procs for 100000 steps with 13500 atoms

Performance: 133278.971 tau/day, 308.516 timesteps/s, 4.165 Matom-step/s
92.3% CPU use with 8 MPI tasks x no OpenMP threads

MPI task timing breakdown:
Section |  min time  |  avg time  |  max time  |%varavg| %total
---------------------------------------------------------------
Pair    | 144.8      | 147.81     | 151.19     |  16.9 | 45.60
Neigh   | 65.766     | 66.835     | 68.027     |   8.1 | 20.62
Comm    | 67.54      | 72.111     | 76.176     |  31.6 | 22.25
Output  | 0.48891    | 0.50913    | 0.53256    |   2.1 |  0.16
Modify  | 29.98      | 30.059     | 30.144     |   1.0 |  9.27
Other   |            | 6.806      |            |       |  2.10

Nlocal:         1687.5 ave        1698 max        1670 min
Histogram: 1 0 0 0 0 1 3 2 0 1
Nghost:         4143.5 ave        4176 max        4110 min
Histogram: 1 1 0 2 1 0 0 0 2 1
Neighs:          96842 ave       98692 max       93966 min
Histogram: 1 0 0 1 2 0 0 0 2 2

Total # of neighbors = 774736
Ave neighs/atom = 57.387852
Neighbor list builds = 14773
Dangerous builds = 0
Total wall time: 0:09:02
