LAMMPS data file - polymer chains

10000 atoms
9500 bonds
0 angles
0 dihedrals
0 impropers

1 atom types
1 bond types

-20 20 xlo xhi
-20 20 ylo yhi
-20 20 zlo zhi

Masses

1 1.0

Atoms # molecular

1 1 1 5.386448 -0.952119 7.419667
2 1 1 6.356448 -1.099946 7.382473
3 1 1 7.326448 -0.942448 7.357153
4 1 1 8.296448 -1.055469 7.323766
5 1 1 9.266448 -0.950960 7.410491
6 1 1 10.236448 -0.978532 7.303142
7 1 1 11.206448 -1.085596 7.367319
8 1 1 12.176448 -1.071071 7.378696
9 1 1 13.146448 -0.974161 7.364632
10 1 1 14.116448 -1.055524 7.442774
11 1 1 15.086448 -1.002160 7.404403
12 1 1 16.056448 -1.012018 7.261076
13 1 1 17.026448 -0.975738 7.258211
14 1 1 17.996448 -0.921786 7.364533
15 1 1 18.966448 -1.002221 7.344535
16 1 1 19.936448 -1.029210 7.321712
17 1 1 20.906448 -1.014203 7.256629
18 1 1 21.876448 -0.992363 7.424969
19 1 1 22.846448 -0.944490 7.275634
20 1 1 23.816448 -0.998326 7.445130
21 2 1 -5.804762 6.719932 0.666312
22 2 1 -4.834762 6.826009 0.640335
23 2 1 -3.864762 6.773870 0.675535
24 2 1 -2.894762 6.679101 0.656012
25 2 1 -1.924762 6.832260 0.557770
26 2 1 -0.954762 6.690646 0.715501
27 2 1 0.015238 6.803828 0.723443
28 2 1 0.985238 6.708252 0.688377
29 2 1 1.955238 6.662359 0.703139
30 2 1 2.925238 6.708500 0.606208
31 2 1 3.895238 6.823784 0.700300
32 2 1 4.865238 6.736976 0.576988
33 2 1 5.835238 6.699309 0.599612
34 2 1 6.805238 6.854230 0.607629
35 2 1 7.775238 6.686735 0.627233
36 2 1 8.745238 6.797598 0.615342
37 2 1 9.715238 6.694992 0.610304
38 2 1 10.685238 6.792167 0.547733
39 2 1 11.655238 6.736577 0.674761
40 2 1 12.625238 6.819268 0.582553
41 3 1 3.904710 8.234046 3.023477
42 3 1 4.874710 8.080986 2.907892
43 3 1 5.844710 8.243455 3.062797
44 3 1 6.814710 8.180989 3.065886
45 3 1 7.784710 8.078772 3.069863
46 3 1 8.754710 8.239950 2.968556
47 3 1 9.724710 8.095035 2.915564
48 3 1 10.694710 8.112175 3.045057
49 3 1 11.664710 8.078081 3.045525
50 3 1 12.634710 8.104095 2.900384
51 3 1 13.604710 8.160776 3.003884
52 3 1 14.574710 8.197402 2.972040
53 3 1 15.544710 8.220504 3.039453
54 3 1 16.514710 8.119592 2.880745
55 3 1 17.484710 8.090003 3.045348
56 3 1 18.454710 8.065020 3.066329
57 3 1 19.424710 8.117762 2.934467
58 3 1 20.394710 8.131821 3.035785
59 3 1 21.364710 8.102966 2.935193
60 3 1 22.334710 8.139471 2.911312
61 4 1 -1.064694 1.958746 -3.504507
62 4 1 -0.094694 1.995031 -3.532944
63 4 1 0.875306 1.873618 -3.550439
64 4 1 1.845306 2.041803 -3.576803
65 4 1 2.815306 1.949685 -3.672366
66 4 1 3.785306 1.903463 -3.663652
67 4 1 4.755306 1.870658 -3.502754
68 4 1 5.725306 1.909465 -3.620681
69 4 1 6.695306 2.024500 -3.619143
70 4 1 7.665306 1.910965 -3.561593
71 4 1 8.635306 2.026685 -3.552836
72 4 1 9.605306 1.980218 -3.510902
73 4 1 10.575306 1.861589 -3.648079
74 4 1 11.545306 1.957032 -3.622833
75 4 1 12.515306 1.942440 -3.559751
76 4 1 13.485306 2.000095 -3.537475
77 4 1 14.455306 2.006240 -3.518161
78 4 1 15.425306 2.025272 -3.568184
79 4 1 16.395306 1.951144 -3.623497
80 4 1 17.365306 1.993397 -3.525644
81 5 1 4.115171 -8.648628 -8.668304
82 5 1 5.085171 -8.644626 -8.686635
83 5 1 6.055171 -8.725470 -8.632103
84 5 1 7.025171 -8.616802 -8.525912
85 5 1 7.995171 -8.553969 -8.561412
86 5 1 8.965171 -8.541396 -8.689872
87 5 1 9.935171 -8.713902 -8.708178
88 5 1 10.905171 -8.626560 -8.661915
89 5 1 11.875171 -8.726786 -8.567076
90 5 1 12.845171 -8.682655 -8.518997
91 5 1 13.815171 -8.534643 -8.578214
92 5 1 14.785171 -8.646552 -8.569324
93 5 1 15.755171 -8.645411 -8.704468
94 5 1 16.725171 -8.588115 -8.632255
95 5 1 17.695171 -8.560164 -8.591702
96 5 1 18.665171 -8.639810 -8.671522
97 5 1 19.635171 -8.552457 -8.534875
98 5 1 20.605171 -8.629014 -8.663717
99 5 1 21.575171 -8.637337 -8.545934
100 5 1 22.545171 -8.580349 -8.630176
101 6 1 4.883265 0.265076 -7.478873
102 6 1 5.853265 0.139324 -7.399348
103 6 1 6.823265 0.127386 -7.410242
104 6 1 7.793265 0.121908 -7.338636
105 6 1 8.763265 0.245472 -7.356607
106 6 1 9.733265 0.306773 -7.340166
107 6 1 10.703265 0.273272 -7.422409
108 6 1 11.673265 0.272717 -7.456374
109 6 1 12.643265 0.175881 -7.325518
110 6 1 13.613265 0.137626 -7.389712
111 6 1 14.583265 0.223535 -7.504501
112 6 1 15.553265 0.133711 -7.323581
113 6 1 16.523265 0.118512 -7.369549
114 6 1 17.493265 0.179477 -7.430519
115 6 1 18.463265 0.275493 -7.450463
116 6 1 19.433265 0.198015 -7.487315
117 6 1 20.403265 0.124987 -7.373069
118 6 1 21.373265 0.134223 -7.510322
119 6 1 22.343265 0.133841 -7.379837
120 6 1 23.313265 0.261064 -7.386254
121 7 1 7.299921 -2.658581 2.959167
122 7 1 8.269921 -2.758829 3.117126
123 7 1 9.239921 -2.700983 3.016631
124 7 1 10.209921 -2.641001 3.068858
125 7 1 11.179921 -2.644277 2.953551
126 7 1 12.149921 -2.642050 3.102349
127 7 1 13.119921 -2.639960 2.989176
128 7 1 14.089921 -2.642340 2.997954
129 7 1 15.059921 -2.818993 2.989104
130 7 1 16.029921 -2.792319 3.009973
131 7 1 16.999921 -2.652705 2.935748
132 7 1 17.969921 -2.660772 2.978422
133 7 1 18.939921 -2.710877 3.109554
134 7 1 19.909921 -2.719773 3.021980
135 7 1 20.879921 -2.734362 3.032462
136 7 1 21.849921 -2.822310 3.092898
137 7 1 22.819921 -2.742388 2.932428
138 7 1 23.789921 -2.747460 3.095108
139 7 1 24.759921 -2.776160 3.108949
140 7 1 25.729921 -2.674846 3.017291
141 8 1 -0.588459 5.720398 1.739568
142 8 1 0.381541 5.717407 1.898337
143 8 1 1.351541 5.817687 1.929129
144 8 1 2.321541 5.874810 1.859942
145 8 1 3.291541 5.724250 1.825841
146 8 1 4.261541 5.793903 1.853624
147 8 1 5.231541 5.885036 1.771685
148 8 1 6.201541 5.849149 1.810499
149 8 1 7.171541 5.783946 1.788501
150 8 1 8.141541 5.817017 1.744990
151 8 1 9.111541 5.841279 1.834258
152 8 1 10.081541 5.722243 1.850725
153 8 1 11.051541 5.764392 1.924656
154 8 1 12.021541 5.827792 1.783799
155 8 1 12.991541 5.808285 1.753677
156 8 1 13.961541 5.692604 1.902184
157 8 1 14.931541 5.712855 1.735794
158 8 1 15.901541 5.800474 1.931787
159 8 1 16.871541 5.789599 1.925239
160 8 1 17.841541 5.795365 1.863059
161 9 1 -7.445558 -10.008034 7.845929
162 9 1 -6.475558 -9.912279 7.893118
163 9 1 -5.505558 -9.935069 7.921089
164 9 1 -4.535558 -10.026086 7.918708
165 9 1 -3.565558 -9.929702 7.910106
166 9 1 -2.595558 -10.064424 7.849025
167 9 1 -1.625558 -9.885301 7.990501
168 9 1 -0.655558 -9.939366 7.837955
169 9 1 0.314442 -10.053099 7.930879
170 9 1 1.284442 -9.960289 7.813326
171 9 1 2.254442 -10.034955 7.822102
172 9 1 3.224442 -9.914444 7.854840
173 9 1 4.194442 -9.923540 7.862094
174 9 1 5.164442 -10.025604 7.832730
175 9 1 6.134442 -9.980159 7.966733
176 9 1 7.104442 -9.923749 7.845788
177 9 1 8.074442 -10.051287 7.823934
178 9 1 9.044442 -9.946564 7.923568
179 9 1 10.014442 -9.874120 7.929381
180 9 1 10.984442 -9.887841 7.938325
181 10 1 6.624036 -7.319549 8.613234
182 10 1 7.594036 -7.232848 8.627580
183 10 1 8.564036 -7.232345 8.666520
184 10 1 9.534036 -7.195713 8.487382
185 10 1 10.504036 -7.274768 8.646849
186 10 1 11.474036 -7.191567 8.533804
187 10 1 12.444036 -7.207938 8.632756
188 10 1 13.414036 -7.187132 8.566660
189 10 1 14.384036 -7.286090 8.503611
190 10 1 15.354036 -7.137306 8.542003
191 10 1 16.324036 -7.174855 8.598440
192 10 1 17.294036 -7.153639 8.610280
193 10 1 18.264036 -7.251725 8.532213
194 10 1 19.234036 -7.320656 8.670843
195 10 1 20.204036 -7.264043 8.617128
196 10 1 21.174036 -7.317288 8.667434
197 10 1 22.144036 -7.231676 8.600116
198 10 1 23.114036 -7.128340 8.595983
199 10 1 24.084036 -7.252428 8.484272
200 10 1 25.054036 -7.300788 8.505740
201 11 1 7.588002 -5.467165 -2.900012
202 11 1 8.558002 -5.437167 -2.915165
203 11 1 9.528002 -5.475059 -2.886286
204 11 1 10.498002 -5.582409 -2.981546
205 11 1 11.468002 -5.450765 -2.963888
206 11 1 12.438002 -5.423146 -2.968712
207 11 1 13.408002 -5.442499 -2.850229
208 11 1 14.378002 -5.410676 -2.865399
209 11 1 15.348002 -5.480233 -2.816321
210 11 1 16.318002 -5.438161 -2.826449
211 11 1 17.288002 -5.479322 -2.924679
212 11 1 18.258002 -5.466519 -3.005376
213 11 1 19.228002 -5.555082 -2.936199
214 11 1 20.198002 -5.412468 -2.864728
215 11 1 21.168002 -5.433736 -2.890778
216 11 1 22.138002 -5.551394 -2.909998
217 11 1 23.108002 -5.538441 -2.914235
218 11 1 24.078002 -5.539035 -2.896708
219 11 1 25.048002 -5.490490 -2.964444
220 11 1 26.018002 -5.460400 -2.936454
221 12 1 8.373378 -7.469528 9.220949
222 12 1 9.343378 -7.523143 9.167660
223 12 1 10.313378 -7.532743 9.181586
224 12 1 11.283378 -7.493947 9.321653
225 12 1 12.253378 -7.648970 9.190366
226 12 1 13.223378 -7.526823 9.310214
227 12 1 14.193378 -7.482480 9.323593
228 12 1 15.163378 -7.461379 9.275429
229 12 1 16.133378 -7.613293 9.233026
230 12 1 17.103378 -7.537574 9.221172
231 12 1 18.073378 -7.543148 9.332320
232 12 1 19.043378 -7.490866 9.205041
233 12 1 20.013378 -7.594167 9.247461
234 12 1 20.983378 -7.640358 9.246565
235 12 1 21.953378 -7.505007 9.210879
236 12 1 22.923378 -7.526887 9.313966
237 12 1 23.893378 -7.601020 9.261138
238 12 1 24.863378 -7.568308 9.233220
239 12 1 25.833378 -7.478139 9.336993
240 12 1 26.803378 -7.617161 9.179189
241 13 1 6.959632 -6.330539 -3.920493
242 13 1 7.929632 -6.246987 -3.844019
243 13 1 8.899632 -6.275215 -3.856791
244 13 1 9.869632 -6.302029 -3.956688
245 13 1 10.839632 -6.402559 -3.917433
246 13 1 11.809632 -6.352734 -3.900927
247 13 1 12.779632 -6.281727 -3.904153
248 13 1 13.749632 -6.402489 -3.886542
249 13 1 14.719632 -6.214241 -3.991635
250 13 1 15.689632 -6.333085 -4.009683
251 13 1 16.659632 -6.352821 -3.833360
252 13 1 17.629632 -6.395825 -4.011799
253 13 1 18.599632 -6.283568 -3.828405
254 13 1 19.569632 -6.387028 -3.853342
255 13 1 20.539632 -6.371849 -3.827762
256 13 1 21.509632 -6.398607 -3.855031
257 13 1 22.479632 -6.208924 -3.992282
258 13 1 23.449632 -6.252680 -3.904158
259 13 1 24.419632 -6.227473 -3.843577
260 13 1 25.389632 -6.241021 -3.983549
261 14 1 0.145936 -1.921724 -4.040358
262 14 1 1.115936 -1.959297 -4.097552
263 14 1 2.085936 -1.822048 -4.159647
264 14 1 3.055936 -1.932748 -4.107054
265 14 1 4.025936 -1.882847 -4.128970
266 14 1 4.995936 -1.843687 -4.153390
267 14 1 5.965936 -1.957848 -4.022480
268 14 1 6.935936 -1.943019 -4.062256
269 14 1 7.905936 -1.865795 -4.163057
270 14 1 8.875936 -1.945820 -4.066112
271 14 1 9.845936 -1.930689 -4.045092
272 14 1 10.815936 -1.862357 -4.127517
273 14 1 11.785936 -1.871796 -4.130375
274 14 1 12.755936 -1.810136 -4.095431
275 14 1 13.725936 -1.841895 -4.166982
276 14 1 14.695936 -1.826552 -4.114862
277 14 1 15.665936 -1.936095 -4.102305
278 14 1 16.635936 -1.842539 -4.157806
279 14 1 17.605936 -1.916143 -4.131454
280 14 1 18.575936 -1.870223 -4.121421
281 15 1 -7.456353 -5.482059 -6.431271
282 15 1 -6.486353 -5.439979 -6.451334
283 15 1 -5.516353 -5.453171 -6.442956
284 15 1 -4.546353 -5.434829 -6.417745
285 15 1 -3.576353 -5.355881 -6.408947
286 15 1 -2.606353 -5.523519 -6.452768
287 15 1 -1.636353 -5.365182 -6.478132
288 15 1 -0.666353 -5.441715 -6.497202
289 15 1 0.303647 -5.449666 -6.503336
290 15 1 1.273647 -5.481805 -6.512781
291 15 1 2.243647 -5.334828 -6.552855
292 15 1 3.213647 -5.391111 -6.420575
293 15 1 4.183647 -5.501432 -6.439984
294 15 1 5.153647 -5.486051 -6.413049
295 15 1 6.123647 -5.491118 -6.398814
296 15 1 7.093647 -5.408700 -6.405639
297 15 1 8.063647 -5.375308 -6.432064
298 15 1 9.033647 -5.430780 -6.403728
299 15 1 10.003647 -5.354509 -6.414058
300 15 1 10.973647 -5.364589 -6.421020
301 16 1 -7.841494 9.041675 -7.173051
302 16 1 -6.871494 9.058329 -7.165651
303 16 1 -5.901494 9.002535 -7.118733
304 16 1 -4.931494 8.932505 -7.260069
305 16 1 -3.961494 8.968981 -7.149712
306 16 1 -2.991494 9.006752 -7.275932
307 16 1 -2.021494 8.929765 -7.156465
308 16 1 -1.051494 8.960161 -7.220811
309 16 1 -0.081494 8.978857 -7.274928
310 16 1 0.888506 9.087406 -7.254602
311 16 1 1.858506 9.096042 -7.244323
312 16 1 2.828506 9.042772 -7.162733
313 16 1 3.798506 9.045876 -7.114112
314 16 1 4.768506 8.954515 -7.096643
315 16 1 5.738506 9.008736 -7.087345
316 16 1 6.708506 8.973706 -7.169698
317 16 1 7.678506 9.025861 -7.094768
318 16 1 8.648506 8.951987 -7.146423
319 16 1 9.618506 8.949299 -7.119063
320 16 1 10.588506 9.030876 -7.225537
321 17 1 -9.807985 -0.991087 3.214460
322 17 1 -8.837985 -1.132032 3.278006
323 17 1 -7.867985 -0.980779 3.301589
324 17 1 -6.897985 -1.135502 3.377755
325 17 1 -5.927985 -1.168275 3.319401
326 17 1 -4.957985 -1.127938 3.289898
327 17 1 -3.987985 -1.109871 3.232273
328 17 1 -3.017985 -1.020136 3.218108
329 17 1 -2.047985 -1.068569 3.267492
330 17 1 -1.077985 -1.128656 3.268763
331 17 1 -0.107985 -1.069556 3.312625
332 17 1 0.862015 -1.158195 3.377618
333 17 1 1.832015 -1.113167 3.388862
334 17 1 2.802015 -1.014633 3.275919
335 17 1 3.772015 -1.041722 3.238536
336 17 1 4.742015 -1.072324 3.277004
337 17 1 5.712015 -1.107091 3.222864
338 17 1 6.682015 -1.002121 3.274901
339 17 1 7.652015 -1.081673 3.370725
340 17 1 8.622015 -1.169090 3.189724
341 18 1 -4.393289 4.356715 1.909030
342 18 1 -3.423289 4.324794 1.849278
343 18 1 -2.453289 4.293742 1.896209
344 18 1 -1.483289 4.338422 1.846508
345 18 1 -0.513289 4.229861 1.902088
346 18 1 0.456711 4.191053 1.983783
347 18 1 1.426711 4.197938 1.954939
348 18 1 2.396711 4.193125 1.973816
349 18 1 3.366711 4.202985 1.804657
350 18 1 4.336711 4.331763 1.944560
351 18 1 5.306711 4.175501 1.884618
352 18 1 6.276711 4.253308 1.843974
353 18 1 7.246711 4.246838 1.975426
354 18 1 8.216711 4.277601 1.979635
355 18 1 9.186711 4.160222 1.811826
356 18 1 10.156711 4.174723 1.823690
357 18 1 11.126711 4.352786 1.955704
358 18 1 12.096711 4.285529 1.876267
359 18 1 13.066711 4.289748 1.930296
360 18 1 14.036711 4.335246 1.966259
361 19 1 -1.481260 6.552102 2.897584
362 19 1 -0.511260 6.546583 2.986235
363 19 1 0.458740 6.432056 2.997203
364 19 1 1.428740 6.378248 2.880357
365 19 1 2.398740 6.536699 2.974202
366 19 1 3.368740 6.558587 2.909952
367 19 1 4.338740 6.432551 2.896524
368 19 1 5.308740 6.393193 3.045324
369 19 1 6.278740 6.385532 3.052808
370 19 1 7.248740 6.408750 2.981071
371 19 1 8.218740 6.537400 2.972710
372 19 1 9.188740 6.498653 3.053789
373 19 1 10.158740 6.500467 3.019532
374 19 1 11.128740 6.549293 2.874659
375 19 1 12.098740 6.405951 3.060322
376 19 1 13.068740 6.441266 3.066514
377 19 1 14.038740 6.506204 3.037428
378 19 1 15.008740 6.419366 3.073444
379 19 1 15.978740 6.372958 2.936998
380 19 1 16.948740 6.457459 2.913026
381 20 1 6.195274 -8.023180 -6.559317
382 20 1 7.165274 -8.042907 -6.471207
383 20 1 8.135274 -8.083225 -6.573923
384 20 1 9.105274 -7.996533 -6.490342
385 20 1 10.075274 -8.056406 -6.542780
386 20 1 11.045274 -7.998407 -6.489626
387 20 1 12.015274 -8.094090 -6.545323
388 20 1 12.985274 -7.933244 -6.474005
389 20 1 13.955274 -7.983256 -6.587120
390 20 1 14.925274 -8.006309 -6.631269
391 20 1 15.895274 -8.002371 -6.567875
392 20 1 16.865274 -7.901658 -6.571235
393 20 1 17.835274 -8.074040 -6.490676
394 20 1 18.805274 -7.924186 -6.568268
395 20 1 19.775274 -7.909143 -6.481466
396 20 1 20.745274 -7.972517 -6.520218
397 20 1 21.715274 -8.036154 -6.580332
398 20 1 22.685274 -7.911454 -6.484209
399 20 1 23.655274 -7.983918 -6.570878
400 20 1 24.625274 -7.973627 -6.557113
401 21 1 -9.009777 -6.120257 8.300660
402 21 1 -8.039777 -6.102046 8.251552
403 21 1 -7.069777 -6.171004 8.187607
404 21 1 -6.099777 -6.231582 8.199126
405 21 1 -5.129777 -6.071078 8.239243
406 21 1 -4.159777 -6.084222 8.229186
407 21 1 -3.189777 -6.189237 8.239075
408 21 1 -2.219777 -6.079092 8.276681
409 21 1 -1.249777 -6.103137 8.232709
410 21 1 -0.279777 -6.197971 8.266124
411 21 1 0.690223 -6.119288 8.187132
412 21 1 1.660223 -6.211230 8.209726
413 21 1 2.630223 -6.154020 8.190709
414 21 1 3.600223 -6.135324 8.256964
415 21 1 4.570223 -6.067036 8.174045
416 21 1 5.540223 -6.196203 8.260013
417 21 1 6.510223 -6.105651 8.255322
418 21 1 7.480223 -6.174021 8.307053
419 21 1 8.450223 -6.053181 8.253567
420 21 1 9.420223 -6.136574 8.196184
421 22 1 2.471276 0.316054 6.288205
422 22 1 3.441276 0.323854 6.341338
423 22 1 4.411276 0.404864 6.406471
424 22 1 5.381276 0.311464 6.441441
425 22 1 6.351276 0.443734 6.424659
426 22 1 7.321276 0.416577 6.436724
427 22 1 8.291276 0.335166 6.365181
428 22 1 9.261276 0.414430 6.272124
429 22 1 10.231276 0.448128 6.298786
430 22 1 11.201276 0.409732 6.264981
431 22 1 12.171276 0.422589 6.277254
432 22 1 13.141276 0.346487 6.419679
433 22 1 14.111276 0.461840 6.243728
434 22 1 15.081276 0.360273 6.292231
435 22 1 16.051276 0.328610 6.340986
436 22 1 17.021276 0.445815 6.394806
437 22 1 17.991276 0.424648 6.381918
438 22 1 18.961276 0.347776 6.379619
439 22 1 19.931276 0.367227 6.408674
440 22 1 20.901276 0.313484 6.423381
441 23 1 -3.876712 -0.374029 -6.150482
442 23 1 -2.906712 -0.354161 -6.067298
443 23 1 -1.936712 -0.518403 -6.102030
444 23 1 -0.966712 -0.474860 -6.090600
445 23 1 0.003288 -0.430199 -6.041857
446 23 1 0.973288 -0.418556 -6.230119
447 23 1 1.943288 -0.447357 -6.169406
448 23 1 2.913288 -0.414221 -6.043044
449 23 1 3.883288 -0.513965 -6.154522
450 23 1 4.853288 -0.386271 -6.163446
451 23 1 5.823288 -0.436791 -6.065438
452 23 1 6.793288 -0.470654 -6.133620
453 23 1 7.763288 -0.380801 -6.121293
454 23 1 8.733288 -0.467587 -6.160034
455 23 1 9.703288 -0.498814 -6.200642
456 23 1 10.673288 -0.365145 -6.191819
457 23 1 11.643288 -0.396398 -6.182189
458 23 1 12.613288 -0.484895 -6.209409
459 23 1 13.583288 -0.502399 -6.166202
460 23 1 14.553288 -0.377183 -6.122239
461 24 1 0.003142 5.684187 9.227726
462 24 1 0.973142 5.610905 9.328868
463 24 1 1.943142 5.705793 9.276770
464 24 1 2.913142 5.637466 9.260260
465 24 1 3.883142 5.705159 9.292874
466 24 1 4.853142 5.537099 9.235541
467 24 1 5.823142 5.666908 9.379410
468 24 1 6.793142 5.552878 9.229318
469 24 1 7.763142 5.537092 9.219149
470 24 1 8.733142 5.540221 9.234989
471 24 1 9.703142 5.659755 9.280355
472 24 1 10.673142 5.688478 9.289087
473 24 1 11.643142 5.617371 9.390912
474 24 1 12.613142 5.567296 9.227448
475 24 1 13.583142 5.695378 9.364723
476 24 1 14.553142 5.537667 9.353624
477 24 1 15.523142 5.618120 9.223501
478 24 1 16.493142 5.536894 9.259782
479 24 1 17.463142 5.713631 9.215079
480 24 1 18.433142 5.716025 9.259974
481 25 1 3.508015 -0.438733 -4.907497
482 25 1 4.478015 -0.592690 -4.914670
483 25 1 5.448015 -0.499857 -5.080555
484 25 1 6.418015 -0.553052 -4.962840
485 25 1 7.388015 -0.604025 -4.957279
486 25 1 8.358015 -0.600272 -5.074391
487 25 1 9.328015 -0.507531 -4.965455
488 25 1 10.298015 -0.600531 -4.908287
489 25 1 11.268015 -0.606009 -5.067022
490 25 1 12.238015 -0.449829 -4.940006
491 25 1 13.208015 -0.597454 -4.903566
492 25 1 14.178015 -0.537650 -4.918112
493 25 1 15.148015 -0.419024 -5.042833
494 25 1 16.118015 -0.506232 -5.069753
495 25 1 17.088015 -0.456741 -5.025633
496 25 1 18.058015 -0.606060 -5.046996
497 25 1 19.028015 -0.591156 -4.951368
498 25 1 19.998015 -0.565702 -5.045181
499 25 1 20.968015 -0.422628 -4.894551
500 25 1 21.938015 -0.504912 -4.920624
501 26 1 -6.736477 5.387219 8.921080
502 26 1 -5.766477 5.319015 9.024609
503 26 1 -4.796477 5.325542 8.854420
504 26 1 -3.826477 5.429417 8.980990
505 26 1 -2.856477 5.247390 8.913290
506 26 1 -1.886477 5.416670 8.929489
507 26 1 -0.916477 5.262518 9.027288
508 26 1 0.053523 5.270073 8.850953
509 26 1 1.023523 5.382580 8.916113
510 26 1 1.993523 5.274832 8.916551
511 26 1 2.963523 5.352581 9.027588
512 26 1 3.933523 5.428190 8.848838
513 26 1 4.903523 5.252368 8.918561
514 26 1 5.873523 5.422613 8.926543
515 26 1 6.843523 5.269577 9.003581
516 26 1 7.813523 5.344477 8.925269
517 26 1 8.783523 5.340902 8.864447
518 26 1 9.753523 5.242454 8.961602
519 26 1 10.723523 5.318606 8.840276
520 26 1 11.693523 5.375722 8.950672
521 27 1 -2.941195 6.404404 -4.604930
522 27 1 -1.971195 6.469319 -4.506736
523 27 1 -1.001195 6.403665 -4.548318
524 27 1 -0.031195 6.518165 -4.446763
525 27 1 0.938805 6.568303 -4.457246
526 27 1 1.908805 6.414920 -4.611220
527 27 1 2.878805 6.510231 -4.415704
528 27 1 3.848805 6.556099 -4.553288
529 27 1 4.818805 6.397010 -4.573514
530 27 1 5.788805 6.477376 -4.564149
531 27 1 6.758805 6.543563 -4.462418
532 27 1 7.728805 6.503442 -4.442780
533 27 1 8.698805 6.503975 -4.474533
534 27 1 9.668805 6.523767 -4.557121
535 27 1 10.638805 6.406872 -4.425523
536 27 1 11.608805 6.412399 -4.576799
537 27 1 12.578805 6.431960 -4.572048
538 27 1 13.548805 6.527920 -4.445945
539 27 1 14.518805 6.561289 -4.519276
540 27 1 15.488805 6.469242 -4.556092
541 28 1 -8.125384 8.804614 -5.546337
542 28 1 -7.155384 8.881168 -5.522337
543 28 1 -6.185384 8.889476 -5.683861
544 28 1 -5.215384 8.905843 -5.553915
545 28 1 -4.245384 8.877503 -5.519627
546 28 1 -3.275384 8.910163 -5.531294
547 28 1 -2.305384 8.897825 -5.632108
548 28 1 -1.335384 8.955621 -5.528399
549 28 1 -0.365384 8.916792 -5.583050
550 28 1 0.604616 8.822273 -5.508562
551 28 1 1.574616 8.875092 -5.644655
552 28 1 2.544616 8.927158 -5.561265
553 28 1 3.514616 8.835469 -5.594212
554 28 1 4.484616 8.879673 -5.527641
555 28 1 5.454616 8.909039 -5.509333
556 28 1 6.424616 8.874205 -5.673189
557 28 1 7.394616 8.842339 -5.609939
558 28 1 8.364616 8.889271 -5.513934
559 28 1 9.334616 8.869863 -5.688047
560 28 1 10.304616 8.892239 -5.605360
561 29 1 8.687790 1.038880 8.061769
562 29 1 9.657790 0.966783 8.039947
563 29 1 10.627790 0.979837 8.180079
564 29 1 11.597790 0.878760 8.059728
565 29 1 12.567790 0.966203 8.053163
566 29 1 13.537790 1.005482 8.159685
567 29 1 14.507790 1.001135 8.008363
568 29 1 15.477790 0.901955 8.044812
569 29 1 16.447790 1.044248 8.121952
570 29 1 17.417790 1.003537 8.157804
571 29 1 18.387790 0.880544 8.144580
572 29 1 19.357790 0.922299 8.047938
573 29 1 20.327790 1.057105 8.170671
574 29 1 21.297790 0.995817 8.136403
575 29 1 22.267790 0.869289 8.058099
576 29 1 23.237790 0.886560 8.070213
577 29 1 24.207790 1.027766 8.133485
578 29 1 25.177790 0.999947 8.009376
579 29 1 26.147790 0.879289 8.024075
580 29 1 27.117790 0.965561 8.054675
581 30 1 6.385732 2.030670 -5.098211
582 30 1 7.355732 1.899217 -4.936206
583 30 1 8.325732 1.866808 -4.961210
584 30 1 9.295732 1.992644 -5.026019
585 30 1 10.265732 1.948992 -5.066812
586 30 1 11.235732 1.946253 -4.956342
587 30 1 12.205732 2.001748 -4.981884
588 30 1 13.175732 2.013841 -5.089634
589 30 1 14.145732 1.900082 -5.087078
590 30 1 15.115732 2.033221 -5.014778
591 30 1 16.085732 1.910451 -5.034887
592 30 1 17.055732 1.961813 -5.057742
593 30 1 18.025732 1.987240 -5.034334
594 30 1 18.995732 2.031616 -5.111320
595 30 1 19.965732 1.854540 -5.111625
596 30 1 20.935732 2.016597 -4.932838
597 30 1 21.905732 1.873530 -5.073098
598 30 1 22.875732 1.937310 -4.955357
599 30 1 23.845732 1.843270 -5.095656
600 30 1 24.815732 1.971702 -5.038135
601 31 1 8.856599 -8.061536 8.506822
602 31 1 9.826599 -8.201090 8.362324
603 31 1 10.796599 -8.154471 8.403062
604 31 1 11.766599 -8.096076 8.466596
605 31 1 12.736599 -8.145490 8.337366
606 31 1 13.706599 -8.207597 8.442932
607 31 1 14.676599 -8.203997 8.335552
608 31 1 15.646599 -8.118540 8.507478
609 31 1 16.616599 -8.025642 8.339044
610 31 1 17.586599 -8.212432 8.344947
611 31 1 18.556599 -8.100440 8.339751
612 31 1 19.526599 -8.064435 8.474963
613 31 1 20.496599 -8.145539 8.456876
614 31 1 21.466599 -8.068597 8.390107
615 31 1 22.436599 -8.068455 8.335104
616 31 1 23.406599 -8.179057 8.402490
617 31 1 24.376599 -8.073283 8.509719
618 31 1 25.346599 -8.128286 8.386980
619 31 1 26.316599 -8.142717 8.397967
620 31 1 27.286599 -8.105312 8.337269
621 32 1 4.397469 0.860062 -3.594654
622 32 1 5.367469 0.789035 -3.545719
623 32 1 6.337469 0.887975 -3.492322
624 32 1 7.307469 0.896015 -3.414805
625 32 1 8.277469 0.912117 -3.546077
626 32 1 9.247469 0.751271 -3.469423
627 32 1 10.217469 0.752793 -3.509302
628 32 1 11.187469 0.856168 -3.519433
629 32 1 12.157469 0.764056 -3.573900
630 32 1 13.127469 0.874618 -3.587797
631 32 1 14.097469 0.841881 -3.412856
632 32 1 15.067469 0.786987 -3.462973
633 32 1 16.037469 0.897410 -3.566083
634 32 1 17.007469 0.891607 -3.511465
635 32 1 17.977469 0.857020 -3.536402
636 32 1 18.947469 0.810074 -3.550343
637 32 1 19.917469 0.766823 -3.496805
638 32 1 20.887469 0.833776 -3.452362
639 32 1 21.857469 0.921411 -3.592493
640 32 1 22.827469 0.914791 -3.445038
641 33 1 -6.034764 -3.355293 -4.951860
642 33 1 -5.064764 -3.380111 -4.779464
643 33 1 -4.094764 -3.372393 -4.880048
644 33 1 -3.124764 -3.382951 -4.950529
645 33 1 -2.154764 -3.234693 -4.948901
646 33 1 -1.184764 -3.275331 -4.969336
647 33 1 -0.214764 -3.343559 -4.805740
648 33 1 0.755236 -3.333939 -4.920023
649 33 1 1.725236 -3.381591 -4.783644
650 33 1 2.695236 -3.259895 -4.944860
651 33 1 3.665236 -3.306927 -4.824918
652 33 1 4.635236 -3.415585 -4.861430
653 33 1 5.605236 -3.290918 -4.876239
654 33 1 6.575236 -3.306939 -4.886866
655 33 1 7.545236 -3.312726 -4.828628
656 33 1 8.515236 -3.280552 -4.855650
657 33 1 9.485236 -3.277291 -4.796622
658 33 1 10.455236 -3.299323 -4.932212
659 33 1 11.425236 -3.301922 -4.908995
660 33 1 12.395236 -3.256138 -4.970335
661 34 1 -1.613309 -6.039977 -9.534762
662 34 1 -0.643309 -5.999330 -9.555700
663 34 1 0.326691 -6.016026 -9.613996
664 34 1 1.296691 -6.068409 -9.691447
665 34 1 2.266691 -6.154021 -9.585980
666 34 1 3.236691 -5.991534 -9.644048
667 34 1 4.206691 -6.160115 -9.511532
668 34 1 5.176691 -6.057971 -9.543796
669 34 1 6.146691 -6.001865 -9.525359
670 34 1 7.116691 -6.170331 -9.628931
671 34 1 8.086691 -6.024969 -9.575615
672 34 1 9.056691 -5.994900 -9.658865
673 34 1 10.026691 -6.130974 -9.493637
674 34 1 10.996691 -6.127894 -9.600003
675 34 1 11.966691 -5.980840 -9.610621
676 34 1 12.936691 -6.027902 -9.622704
677 34 1 13.906691 -6.080916 -9.638017
678 34 1 14.876691 -6.010307 -9.546890
679 34 1 15.846691 -6.092829 -9.549333
680 34 1 16.816691 -6.088591 -9.624186
681 35 1 6.241908 -9.096311 6.738338
682 35 1 7.211908 -9.260915 6.738878
683 35 1 8.181908 -9.238085 6.855064
684 35 1 9.151908 -9.201962 6.821834
685 35 1 10.121908 -9.184285 6.921926
686 35 1 11.091908 -9.112320 6.827516
687 35 1 12.061908 -9.133155 6.894465
688 35 1 13.031908 -9.219305 6.858029
689 35 1 14.001908 -9.188648 6.880046
690 35 1 14.971908 -9.168491 6.814615
691 35 1 15.941908 -9.265247 6.819853
692 35 1 16.911908 -9.218352 6.910019
693 35 1 17.881908 -9.216067 6.781602
694 35 1 18.851908 -9.183786 6.888016
695 35 1 19.821908 -9.129669 6.872702
696 35 1 20.791908 -9.227224 6.806178
697 35 1 21.761908 -9.215207 6.739291
698 35 1 22.731908 -9.225247 6.896588
699 35 1 23.701908 -9.188167 6.912657
700 35 1 24.671908 -9.190517 6.754144
701 36 1 2.152574 8.627269 -3.062903
702 36 1 3.122574 8.629277 -2.991366
703 36 1 4.092574 8.689851 -3.080254
704 36 1 5.062574 8.677578 -2.973284
705 36 1 6.032574 8.553975 -2.994732
706 36 1 7.002574 8.724507 -3.072490
707 36 1 7.972574 8.559263 -2.985065
708 36 1 8.942574 8.593631 -2.987990
709 36 1 9.912574 8.546281 -3.038769
710 36 1 10.882574 8.611733 -3.103041
711 36 1 11.852574 8.622217 -3.116621
712 36 1 12.822574 8.662076 -2.965397
713 36 1 13.792574 8.680591 -3.079376
714 36 1 14.762574 8.621387 -2.943944
715 36 1 15.732574 8.621175 -2.949252
716 36 1 16.702574 8.670731 -3.062879
717 36 1 17.672574 8.722697 -3.008990
718 36 1 18.642574 8.616244 -2.966622
719 36 1 19.612574 8.730898 -3.064147
720 36 1 20.582574 8.732469 -3.083842
721 37 1 3.503620 -2.558501 -6.032052
722 37 1 4.473620 -2.624980 -6.019509
723 37 1 5.443620 -2.595449 -5.981878
724 37 1 6.413620 -2.548513 -6.087029
725 37 1 7.383620 -2.573034 -5.912838
726 37 1 8.353620 -2.567615 -5.924504
727 37 1 9.323620 -2.587934 -5.908529
728 37 1 10.293620 -2.531406 -6.062130
729 37 1 11.263620 -2.592155 -5.912440
730 37 1 12.233620 -2.579057 -5.991518
731 37 1 13.203620 -2.474188 -5.956030
732 37 1 14.173620 -2.483049 -5.933690
733 37 1 15.143620 -2.565006 -6.086878
734 37 1 16.113620 -2.663486 -5.912181
735 37 1 17.083620 -2.585094 -6.071781
736 37 1 18.053620 -2.580103 -6.055807
737 37 1 19.023620 -2.614412 -5.975003
738 37 1 19.993620 -2.653593 -5.948818
739 37 1 20.963620 -2.655949 -6.054681
740 37 1 21.933620 -2.525720 -5.994097
741 38 1 6.732549 -3.830664 -8.309279
742 38 1 7.702549 -3.720631 -8.377747
743 38 1 8.672549 -3.773718 -8.325493
744 38 1 9.642549 -3.775219 -8.275737
745 38 1 10.612549 -3.829513 -8.305718
746 38 1 11.582549 -3.781396 -8.338314
747 38 1 12.552549 -3.718853 -8.346526
748 38 1 13.522549 -3.694405 -8.297854
749 38 1 14.492549 -3.803422 -8.361137
750 38 1 15.462549 -3.672116 -8.299340
751 38 1 16.432549 -3.739927 -8.385923
752 38 1 17.402549 -3.690451 -8.346735
753 38 1 18.372549 -3.769680 -8.270320
754 38 1 19.342549 -3.822283 -8.382231
755 38 1 20.312549 -3.769771 -8.428399
756 38 1 21.282549 -3.670070 -8.251789
757 38 1 22.252549 -3.848007 -8.370423
758 38 1 23.222549 -3.723048 -8.344813
759 38 1 24.192549 -3.789547 -8.273333
760 38 1 25.162549 -3.725437 -8.389693
761 39 1 -6.000348 5.094477 5.802240
762 39 1 -5.030348 5.071185 5.682884
763 39 1 -4.060348 4.984133 5.714344
764 39 1 -3.090348 4.987185 5.763043
765 39 1 -2.120348 5.066537 5.603838
766 39 1 -1.150348 4.984563 5.796684
767 39 1 -0.180348 5.101832 5.703393
768 39 1 0.789652 5.086466 5.657670
769 39 1 1.759652 5.028510 5.640869
770 39 1 2.729652 5.083202 5.627475
771 39 1 3.699652 5.106121 5.636147
772 39 1 4.669652 4.999983 5.774398
773 39 1 5.639652 4.996200 5.731180
774 39 1 6.609652 5.062405 5.796744
775 39 1 7.579652 4.993392 5.761977
776 39 1 8.549652 5.051433 5.613959
777 39 1 9.519652 4.976327 5.689331
778 39 1 10.489652 5.061535 5.795485
779 39 1 11.459652 5.066978 5.623702
780 39 1 12.429652 5.065031 5.654536
781 40 1 -5.042778 7.835439 7.817564
782 40 1 -4.072778 7.903429 7.813713
783 40 1 -3.102778 7.949308 7.743642
784 40 1 -2.132778 7.912588 7.772406
785 40 1 -1.162778 7.962074 7.742414
786 40 1 -0.192778 8.021090 7.730846
787 40 1 0.777222 7.867119 7.848801
788 40 1 1.747222 7.918081 7.754408
789 40 1 2.717222 7.878127 7.780822
790 40 1 3.687222 7.918944 7.762769
791 40 1 4.657222 7.933952 7.752028
792 40 1 5.627222 7.867349 7.706243
793 40 1 6.597222 8.005175 7.818429
794 40 1 7.567222 7.849199 7.856868
795 40 1 8.537222 7.973453 7.828039
796 40 1 9.507222 7.959870 7.741040
797 40 1 10.477222 7.969703 7.831497
798 40 1 11.447222 7.899839 7.724434
799 40 1 12.417222 8.020507 7.885569
800 40 1 13.387222 8.023213 7.736135
801 41 1 5.128665 0.775835 -2.076846
802 41 1 6.098665 0.688506 -2.126002
803 41 1 7.068665 0.796295 -2.026311
804 41 1 8.038665 0.728749 -2.110575
805 41 1 9.008665 0.715885 -2.112948
806 41 1 9.978665 0.678405 -2.036853
807 41 1 10.948665 0.681947 -2.135281
808 41 1 11.918665 0.726444 -2.061612
809 41 1 12.888665 0.710147 -2.079974
810 41 1 13.858665 0.676540 -2.071538
811 41 1 14.828665 0.729923 -1.958754
812 41 1 15.798665 0.847517 -1.992805
813 41 1 16.768665 0.772956 -1.966030
814 41 1 17.738665 0.719982 -1.991903
815 41 1 18.708665 0.694960 -2.010139
816 41 1 19.678665 0.811191 -2.082973
817 41 1 20.648665 0.702529 -2.013873
818 41 1 21.618665 0.676836 -1.951919
819 41 1 22.588665 0.752820 -2.143723
820 41 1 23.558665 0.837169 -2.077449
821 42 1 -2.314701 -2.805735 -3.635632
822 42 1 -1.344701 -2.795406 -3.694885
823 42 1 -0.374701 -2.853026 -3.587238
824 42 1 0.595299 -2.772591 -3.581581
825 42 1 1.565299 -2.776344 -3.678273
826 42 1 2.535299 -2.870265 -3.685922
827 42 1 3.505299 -2.723960 -3.540539
828 42 1 4.475299 -2.886999 -3.666259
829 42 1 5.445299 -2.739032 -3.568786
830 42 1 6.415299 -2.756183 -3.634164
831 42 1 7.385299 -2.892961 -3.686255
832 42 1 8.355299 -2.726709 -3.557867
833 42 1 9.325299 -2.754209 -3.665516
834 42 1 10.295299 -2.844768 -3.659614
835 42 1 11.265299 -2.735166 -3.541986
836 42 1 12.235299 -2.808437 -3.580754
837 42 1 13.205299 -2.812413 -3.617193
838 42 1 14.175299 -2.756043 -3.675428
839 42 1 15.145299 -2.861278 -3.605153
840 42 1 16.115299 -2.869154 -3.547164
841 43 1 -1.462093 3.201203 -3.364962
842 43 1 -0.492093 3.050016 -3.459493
843 43 1 0.477907 3.202191 -3.474236
844 43 1 1.447907 3.150696 -3.392675
845 43 1 2.417907 3.168084 -3.452263
846 43 1 3.387907 3.103945 -3.394741
847 43 1 4.357907 3.076404 -3.451897
848 43 1 5.327907 3.089130 -3.396006
849 43 1 6.297907 3.230724 -3.376595
850 43 1 7.267907 3.135253 -3.400521
851 43 1 8.237907 3.071644 -3.380866
852 43 1 9.207907 3.143480 -3.388954
853 43 1 10.177907 3.217527 -3.392605
854 43 1 11.147907 3.125877 -3.326306
855 43 1 12.117907 3.081037 -3.387396
856 43 1 13.087907 3.114254 -3.475734
857 43 1 14.057907 3.183524 -3.312815
858 43 1 15.027907 3.224827 -3.495668
859 43 1 15.997907 3.161759 -3.454723
860 43 1 16.967907 3.154355 -3.402805
861 44 1 -3.410623 8.910333 8.531544
862 44 1 -2.440623 8.915240 8.370328
863 44 1 -1.470623 8.947455 8.374503
864 44 1 -0.500623 8.911982 8.387826
865 44 1 0.469377 8.894180 8.398813
866 44 1 1.439377 8.979593 8.458233
867 44 1 2.409377 8.987604 8.477870
868 44 1 3.379377 8.964343 8.538844
869 44 1 4.349377 8.877350 8.404038
870 44 1 5.319377 8.869842 8.405235
871 44 1 6.289377 8.949376 8.476727
872 44 1 7.259377 8.869193 8.494263
873 44 1 8.229377 8.837560 8.425255
874 44 1 9.199377 8.977982 8.551697
875 44 1 10.169377 8.826616 8.514469
876 44 1 11.139377 8.980523 8.474166
877 44 1 12.109377 8.980639 8.403244
878 44 1 13.079377 8.983277 8.452881
879 44 1 14.049377 8.854496 8.399524
880 44 1 15.019377 8.960123 8.485659
881 45 1 0.758528 6.590621 8.843660
882 45 1 1.728528 6.512827 8.854693
883 45 1 2.698528 6.575226 8.879520
884 45 1 3.668528 6.608457 8.893173
885 45 1 4.638528 6.421826 8.920400
886 45 1 5.608528 6.458278 8.825943
887 45 1 6.578528 6.436019 8.816599
888 45 1 7.548528 6.533286 8.918950
889 45 1 8.518528 6.433791 8.898245
890 45 1 9.488528 6.575261 8.921994
891 45 1 10.458528 6.608876 8.892488
892 45 1 11.428528 6.566897 8.754762
893 45 1 12.398528 6.588157 8.793655
894 45 1 13.368528 6.475198 8.752434
895 45 1 14.338528 6.530234 8.912257
896 45 1 15.308528 6.591372 8.776868
897 45 1 16.278528 6.463391 8.759317
898 45 1 17.248528 6.541134 8.888679
899 45 1 18.218528 6.441054 8.920554
900 45 1 19.188528 6.432873 8.892978
901 46 1 -6.878436 3.682831 2.477046
902 46 1 -5.908436 3.799877 2.532994
903 46 1 -4.938436 3.731903 2.631458
904 46 1 -3.968436 3.705454 2.477475
905 46 1 -2.998436 3.714416 2.548473
906 46 1 -2.028436 3.747063 2.578115
907 46 1 -1.058436 3.691400 2.535796
908 46 1 -0.088436 3.805026 2.511199
909 46 1 0.881564 3.777127 2.604136
910 46 1 1.851564 3.653927 2.613006
911 46 1 2.821564 3.691781 2.479688
912 46 1 3.791564 3.711544 2.604132
913 46 1 4.761564 3.746225 2.531861
914 46 1 5.731564 3.734694 2.559882
915 46 1 6.701564 3.781554 2.444242
916 46 1 7.671564 3.789249 2.441065
917 46 1 8.641564 3.749068 2.567334
918 46 1 9.611564 3.668985 2.449633
919 46 1 10.581564 3.705949 2.532150
920 46 1 11.551564 3.790754 2.527816
921 47 1 -0.080840 -7.468947 -9.365786
922 47 1 0.889160 -7.537632 -9.373165
923 47 1 1.859160 -7.542866 -9.494874
924 47 1 2.829160 -7.372225 -9.336195
925 47 1 3.799160 -7.540100 -9.456306
926 47 1 4.769160 -7.479417 -9.317994
927 47 1 5.739160 -7.381653 -9.410315
928 47 1 6.709160 -7.487432 -9.385519
929 47 1 7.679160 -7.378322 -9.468026
930 47 1 8.649160 -7.376360 -9.457474
931 47 1 9.619160 -7.482046 -9.392817
932 47 1 10.589160 -7.436030 -9.508581
933 47 1 11.559160 -7.454652 -9.389554
934 47 1 12.529160 -7.344683 -9.314341
935 47 1 13.499160 -7.534785 -9.453172
936 47 1 14.469160 -7.389942 -9.494249
937 47 1 15.439160 -7.410808 -9.473429
938 47 1 16.409160 -7.469885 -9.353740
939 47 1 17.379160 -7.539939 -9.500322
940 47 1 18.349160 -7.461882 -9.490228
941 48 1 9.449572 0.649779 2.579174
942 48 1 10.419572 0.611084 2.492104
943 48 1 11.389572 0.509132 2.599762
944 48 1 12.359572 0.553609 2.525751
945 48 1 13.329572 0.656098 2.597356
946 48 1 14.299572 0.581943 2.489483
947 48 1 15.269572 0.492176 2.551338
948 48 1 16.239572 0.641316 2.484033
949 48 1 17.209572 0.499131 2.659752
950 48 1 18.179572 0.532192 2.474891
951 48 1 19.149572 0.508977 2.608519
952 48 1 20.119572 0.539746 2.520879
953 48 1 21.089572 0.568782 2.604975
954 48 1 22.059572 0.677569 2.507436
955 48 1 23.029572 0.604416 2.492958
956 48 1 23.999572 0.505578 2.479072
957 48 1 24.969572 0.603999 2.519557
958 48 1 25.939572 0.624078 2.522682
959 48 1 26.909572 0.552285 2.595859
960 48 1 27.879572 0.542403 2.625467
961 49 1 7.143303 1.500702 8.017829
962 49 1 8.113303 1.607587 7.971109
963 49 1 9.083303 1.512834 7.864535
964 49 1 10.053303 1.516305 7.927371
965 49 1 11.023303 1.616545 8.002631
966 49 1 11.993303 1.673808 7.876837
967 49 1 12.963303 1.571266 8.033997
968 49 1 13.933303 1.626172 7.952569
969 49 1 14.903303 1.671905 8.037301
970 49 1 15.873303 1.504583 7.982671
971 49 1 16.843303 1.549441 7.885198
972 49 1 17.813303 1.661547 8.029715
973 49 1 18.783303 1.564015 7.876104
974 49 1 19.753303 1.660474 8.010532
975 49 1 20.723303 1.647874 7.843525
976 49 1 21.693303 1.616945 8.014967
977 49 1 22.663303 1.657665 7.942701
978 49 1 23.633303 1.601748 7.971968
979 49 1 24.603303 1.596334 7.918910
980 49 1 25.573303 1.651837 7.848288
981 50 1 -0.798822 -3.571237 -3.630796
982 50 1 0.171178 -3.487993 -3.524120
983 50 1 1.141178 -3.539893 -3.543197
984 50 1 2.111178 -3.564423 -3.547483
985 50 1 3.081178 -3.505059 -3.666034
986 50 1 4.051178 -3.517509 -3.708638
987 50 1 5.021178 -3.572471 -3.570690
988 50 1 5.991178 -3.640200 -3.612202
989 50 1 6.961178 -3.515030 -3.641035
990 50 1 7.931178 -3.597324 -3.593569
991 50 1 8.901178 -3.548436 -3.601489
992 50 1 9.871178 -3.662955 -3.675545
993 50 1 10.841178 -3.646696 -3.676567
994 50 1 11.811178 -3.637924 -3.717004
995 50 1 12.781178 -3.525318 -3.708044
996 50 1 13.751178 -3.663060 -3.700206
997 50 1 14.721178 -3.587747 -3.597423
998 50 1 15.691178 -3.562050 -3.615721
999 50 1 16.661178 -3.478264 -3.532605
1000 50 1 17.631178 -3.471005 -3.671651
1001 51 1 2.289166 8.076691 -0.280612
1002 51 1 3.259166 8.149491 -0.437658
1003 51 1 4.229166 8.144164 -0.405777
1004 51 1 5.199166 8.065622 -0.450743
1005 51 1 6.169166 8.037956 -0.283816
1006 51 1 7.139166 8.119658 -0.425552
1007 51 1 8.109166 8.113140 -0.449157
1008 51 1 9.079166 8.169817 -0.462139
1009 51 1 10.049166 8.122954 -0.351663
1010 51 1 11.019166 8.193618 -0.288089
1011 51 1 11.989166 8.195434 -0.350850
1012 51 1 12.959166 8.026121 -0.348756
1013 51 1 13.929166 8.040307 -0.408185
1014 51 1 14.899166 8.100787 -0.275201
1015 51 1 15.869166 8.074498 -0.305018
1016 51 1 16.839166 8.027739 -0.287329
1017 51 1 17.809166 8.134410 -0.366223
1018 51 1 18.779166 8.095449 -0.418679
1019 51 1 19.749166 8.063332 -0.442113
1020 51 1 20.719166 8.109332 -0.278337
1021 52 1 5.332251 1.540169 -2.830175
1022 52 1 6.302251 1.479892 -2.967046
1023 52 1 7.272251 1.490954 -2.784618
1024 52 1 8.242251 1.520704 -2.893371
1025 52 1 9.212251 1.457552 -2.856475
1026 52 1 10.182251 1.582371 -2.921734
1027 52 1 11.152251 1.512346 -2.843263
1028 52 1 12.122251 1.541510 -2.945933
1029 52 1 13.092251 1.408554 -2.803675
1030 52 1 14.062251 1.461962 -2.931376
1031 52 1 15.032251 1.574314 -2.795739
1032 52 1 16.002251 1.576551 -2.817370
1033 52 1 16.972251 1.408255 -2.924028
1034 52 1 17.942251 1.519815 -2.950610
1035 52 1 18.912251 1.409908 -2.921030
1036 52 1 19.882251 1.454761 -2.803627
1037 52 1 20.852251 1.530239 -2.967535
1038 52 1 21.822251 1.497397 -2.967230
1039 52 1 22.792251 1.574761 -2.966403
1040 52 1 23.762251 1.491215 -2.926832
1041 53 1 -4.900622 1.867843 2.955640
1042 53 1 -3.930622 1.838513 2.896402
1043 53 1 -2.960622 1.852643 3.040084
1044 53 1 -1.990622 1.822416 2.960490
1045 53 1 -1.020622 1.841265 2.925274
1046 53 1 -0.050622 1.953346 2.948869
1047 53 1 0.919378 1.941974 2.850683
1048 53 1 1.889378 1.886025 2.934341
1049 53 1 2.859378 1.870740 2.866744
1050 53 1 3.829378 1.926587 2.923875
1051 53 1 4.799378 1.889453 2.961460
1052 53 1 5.769378 1.903902 2.898729
1053 53 1 6.739378 1.774746 2.874837
1054 53 1 7.709378 1.834368 2.913833
1055 53 1 8.679378 1.838595 2.854254
1056 53 1 9.649378 1.872681 2.904652
1057 53 1 10.619378 1.957670 2.864933
1058 53 1 11.589378 1.779017 2.924139
1059 53 1 12.559378 1.865949 2.849577
1060 53 1 13.529378 1.840424 2.895604
1061 54 1 9.476874 -6.964243 8.944719
1062 54 1 10.446874 -6.878047 8.833333
1063 54 1 11.416874 -6.872239 8.787728
1064 54 1 12.386874 -6.923128 8.809745
1065 54 1 13.356874 -6.895213 8.915063
1066 54 1 14.326874 -6.917829 8.917602
1067 54 1 15.296874 -6.875861 8.763504
1068 54 1 16.266874 -6.911868 8.796733
1069 54 1 17.236874 -6.913585 8.929308
1070 54 1 18.206874 -6.979118 8.772456
1071 54 1 19.176874 -7.022550 8.920890
1072 54 1 20.146874 -6.869638 8.871673
1073 54 1 21.116874 -6.857139 8.780397
1074 54 1 22.086874 -7.044134 8.883592
1075 54 1 23.056874 -6.918228 8.869619
1076 54 1 24.026874 -6.898705 8.830623
1077 54 1 24.996874 -6.932058 8.850556
1078 54 1 25.966874 -6.930186 8.786676
1079 54 1 26.936874 -6.883399 8.914759
1080 54 1 27.906874 -6.880065 8.951186
1081 55 1 -6.658779 -5.920932 6.573870
1082 55 1 -5.688779 -5.916282 6.737951
1083 55 1 -4.718779 -5.879162 6.737165
1084 55 1 -3.748779 -5.786999 6.603961
1085 55 1 -2.778779 -5.761293 6.676312
1086 55 1 -1.808779 -5.781290 6.749459
1087 55 1 -0.838779 -5.931914 6.628726
1088 55 1 0.131221 -5.840870 6.707965
1089 55 1 1.101221 -5.754801 6.712816
1090 55 1 2.071221 -5.867816 6.608214
1091 55 1 3.041221 -5.916852 6.589872
1092 55 1 4.011221 -5.847159 6.725717
1093 55 1 4.981221 -5.781428 6.714529
1094 55 1 5.951221 -5.765157 6.642234
1095 55 1 6.921221 -5.798619 6.727862
1096 55 1 7.891221 -5.912129 6.692717
1097 55 1 8.861221 -5.817628 6.553022
1098 55 1 9.831221 -5.819735 6.732117
1099 55 1 10.801221 -5.755023 6.691427
1100 55 1 11.771221 -5.816198 6.620825
1101 56 1 7.033977 5.288553 -0.633997
1102 56 1 8.003977 5.289375 -0.537870
1103 56 1 8.973977 5.332928 -0.665523
1104 56 1 9.943977 5.260236 -0.613257
1105 56 1 10.913977 5.437132 -0.594002
1106 56 1 11.883977 5.336498 -0.652327
1107 56 1 12.853977 5.299044 -0.682283
1108 56 1 13.823977 5.297047 -0.553227
1109 56 1 14.793977 5.364326 -0.573738
1110 56 1 15.763977 5.300909 -0.647523
1111 56 1 16.733977 5.286799 -0.564675
1112 56 1 17.703977 5.325022 -0.731904
1113 56 1 18.673977 5.345251 -0.719098
1114 56 1 19.643977 5.375187 -0.587605
1115 56 1 20.613977 5.395203 -0.595460
1116 56 1 21.583977 5.379182 -0.563514
1117 56 1 22.553977 5.254763 -0.718776
1118 56 1 23.523977 5.304702 -0.542931
1119 56 1 24.493977 5.325921 -0.597536
1120 56 1 25.463977 5.311886 -0.706966
1121 57 1 -3.621356 -2.840481 2.657107
1122 57 1 -2.651356 -2.942197 2.526030
1123 57 1 -1.681356 -2.816497 2.716928
1124 57 1 -0.711356 -2.954628 2.621986
1125 57 1 0.258644 -2.947220 2.533954
1126 57 1 1.228644 -2.982445 2.667275
1127 57 1 2.198644 -2.910553 2.696910
1128 57 1 3.168644 -2.923624 2.672075
1129 57 1 4.138644 -2.827134 2.688597
1130 57 1 5.108644 -2.873063 2.583871
1131 57 1 6.078644 -2.921363 2.562174
1132 57 1 7.048644 -2.996737 2.533482
1133 57 1 8.018644 -2.968180 2.709310
1134 57 1 8.988644 -2.969375 2.613259
1135 57 1 9.958644 -2.845295 2.655614
1136 57 1 10.928644 -2.923102 2.526210
1137 57 1 11.898644 -2.912538 2.585390
1138 57 1 12.868644 -2.831365 2.713919
1139 57 1 13.838644 -2.820211 2.698525
1140 57 1 14.808644 -2.846841 2.617964
1141 58 1 -0.975727 -8.478032 1.923556
1142 58 1 -0.005727 -8.418103 1.903383
1143 58 1 0.964273 -8.417686 2.001775
1144 58 1 1.934273 -8.434298 1.884424
1145 58 1 2.904273 -8.481193 1.844882
1146 58 1 3.874273 -8.539036 1.908727
1147 58 1 4.844273 -8.499296 1.914271
1148 58 1 5.814273 -8.489846 1.952821
1149 58 1 6.784273 -8.581060 1.899988
1150 58 1 7.754273 -8.454667 1.983927
1151 58 1 8.724273 -8.528792 2.030864
1152 58 1 9.694273 -8.590450 2.010626
1153 58 1 10.664273 -8.408921 1.964141
1154 58 1 11.634273 -8.473732 1.976078
1155 58 1 12.604273 -8.505203 1.849261
1156 58 1 13.574273 -8.528173 2.031628
1157 58 1 14.544273 -8.481580 1.920241
1158 58 1 15.514273 -8.550926 1.845736
1159 58 1 16.484273 -8.500482 1.927915
1160 58 1 17.454273 -8.537422 2.030668
1161 59 1 -4.641646 2.494429 -1.009109
1162 59 1 -3.671646 2.628680 -1.109013
1163 59 1 -2.701646 2.610084 -1.073577
1164 59 1 -1.731646 2.614928 -1.044674
1165 59 1 -0.761646 2.574768 -0.956339
1166 59 1 0.208354 2.582711 -1.042318
1167 59 1 1.178354 2.501281 -0.965332
1168 59 1 2.148354 2.495428 -1.008568
1169 59 1 3.118354 2.565672 -1.041805
1170 59 1 4.088354 2.490413 -0.955790
1171 59 1 5.058354 2.544476 -1.070678
1172 59 1 6.028354 2.657277 -1.121491
1173 59 1 6.998354 2.623001 -1.040583
1174 59 1 7.968354 2.654631 -1.093188
1175 59 1 8.938354 2.493862 -1.110219
1176 59 1 9.908354 2.555966 -1.004479
1177 59 1 10.878354 2.640921 -1.055109
1178 59 1 11.848354 2.538543 -1.023447
1179 59 1 12.818354 2.479237 -0.964737
1180 59 1 13.788354 2.657707 -1.006148
1181 60 1 -3.141493 -8.539749 7.022762
1182 60 1 -2.171493 -8.644227 7.020655
1183 60 1 -1.201493 -8.597541 7.021838
1184 60 1 -0.231493 -8.579619 7.145216
1185 60 1 0.738507 -8.613945 7.021074
1186 60 1 1.708507 -8.561019 7.093321
1187 60 1 2.678507 -8.506801 7.100226
1188 60 1 3.648507 -8.659258 7.084946
1189 60 1 4.618507 -8.549741 7.152901
1190 60 1 5.588507 -8.627395 6.996149
1191 60 1 6.558507 -8.556066 7.066477
1192 60 1 7.528507 -8.541971 7.140749
1193 60 1 8.498507 -8.514228 7.160893
1194 60 1 9.468507 -8.519380 7.146035
1195 60 1 10.438507 -8.533489 7.099543
1196 60 1 11.408507 -8.584811 7.056726
1197 60 1 12.378507 -8.567911 7.040444
1198 60 1 13.348507 -8.576245 6.986357
1199 60 1 14.318507 -8.493519 7.020789
1200 60 1 15.288507 -8.619967 7.165023
1201 61 1 4.336875 -6.447888 -2.124123
1202 61 1 5.306875 -6.490826 -2.049560
1203 61 1 6.276875 -6.551854 -2.046896
1204 61 1 7.246875 -6.472912 -2.207872
1205 61 1 8.216875 -6.459435 -2.038498
1206 61 1 9.186875 -6.543195 -2.227816
1207 61 1 10.156875 -6.437340 -2.235376
1208 61 1 11.126875 -6.375987 -2.087330
1209 61 1 12.096875 -6.506289 -2.116131
1210 61 1 13.066875 -6.473323 -2.142233
1211 61 1 14.036875 -6.550814 -2.082302
1212 61 1 15.006875 -6.383025 -2.088378
1213 61 1 15.976875 -6.545961 -2.119400
1214 61 1 16.946875 -6.377673 -2.095761
1215 61 1 17.916875 -6.409372 -2.162534
1216 61 1 18.886875 -6.406436 -2.080583
1217 61 1 19.856875 -6.509402 -2.158972
1218 61 1 20.826875 -6.403367 -2.177547
1219 61 1 21.796875 -6.371496 -2.118849
1220 61 1 22.766875 -6.478976 -2.101182
1221 62 1 -7.233729 -8.799212 8.195001
1222 62 1 -6.263729 -8.792786 8.241683
1223 62 1 -5.293729 -8.810885 8.234892
1224 62 1 -4.323729 -8.715089 8.218980
1225 62 1 -3.353729 -8.833806 8.132112
1226 62 1 -2.383729 -8.750351 8.233766
1227 62 1 -1.413729 -8.764188 8.222572
1228 62 1 -0.443729 -8.807832 8.099186
1229 62 1 0.526271 -8.752620 8.135555
1230 62 1 1.496271 -8.788075 8.244011
1231 62 1 2.466271 -8.854411 8.176808
1232 62 1 3.436271 -8.873588 8.180795
1233 62 1 4.406271 -8.708270 8.164095
1234 62 1 5.376271 -8.775656 8.266916
1235 62 1 6.346271 -8.694944 8.127184
1236 62 1 7.316271 -8.707047 8.168432
1237 62 1 8.286271 -8.823000 8.104204
1238 62 1 9.256271 -8.832206 8.255211
1239 62 1 10.226271 -8.842289 8.259916
1240 62 1 11.196271 -8.760810 8.091833
1241 63 1 -4.446445 3.631948 4.669623
1242 63 1 -3.476445 3.720595 4.563070
1243 63 1 -2.506445 3.637309 4.640665
1244 63 1 -1.536445 3.747946 4.564809
1245 63 1 -0.566445 3.687381 4.702719
1246 63 1 0.403555 3.751198 4.586206
1247 63 1 1.373555 3.754184 4.678629
1248 63 1 2.343555 3.698114 4.587668
1249 63 1 3.313555 3.670788 4.707019
1250 63 1 4.283555 3.655156 4.538026
1251 63 1 5.253555 3.648145 4.611197
1252 63 1 6.223555 3.708693 4.592390
1253 63 1 7.193555 3.780637 4.608761
1254 63 1 8.163555 3.716191 4.694609
1255 63 1 9.133555 3.598884 4.644823
1256 63 1 10.103555 3.678812 4.703174
1257 63 1 11.073555 3.669859 4.560262
1258 63 1 12.043555 3.617650 4.549850
1259 63 1 13.013555 3.747714 4.709186
1260 63 1 13.983555 3.637802 4.541895
1261 64 1 3.803389 -8.304007 9.006262
1262 64 1 4.773389 -8.366517 9.051317
1263 64 1 5.743389 -8.304918 9.110087
1264 64 1 6.713389 -8.319091 9.059948
1265 64 1 7.683389 -8.302573 9.082742
1266 64 1 8.653389 -8.378094 9.175177
1267 64 1 9.623389 -8.393452 9.082789
1268 64 1 10.593389 -8.356600 9.079586
1269 64 1 11.563389 -8.213499 9.033312
1270 64 1 12.533389 -8.279748 9.015334
1271 64 1 13.503389 -8.356771 9.038964
1272 64 1 14.473389 -8.226259 9.104533
1273 64 1 15.443389 -8.364547 9.089564
1274 64 1 16.413389 -8.355348 9.111251
1275 64 1 17.383389 -8.247361 9.125849
1276 64 1 18.353389 -8.367353 9.164776
1277 64 1 19.323389 -8.245073 9.142633
1278 64 1 20.293389 -8.332365 9.143692
1279 64 1 21.263389 -8.350418 9.131160
1280 64 1 22.233389 -8.343847 9.063684
1281 65 1 4.104533 6.884637 -2.805631
1282 65 1 5.074533 6.851231 -2.763914
1283 65 1 6.044533 6.823703 -2.754219
1284 65 1 7.014533 6.788346 -2.656480
1285 65 1 7.984533 6.829838 -2.752317
1286 65 1 8.954533 6.847902 -2.770553
1287 65 1 9.924533 6.886873 -2.717748
1288 65 1 10.894533 6.791770 -2.666887
1289 65 1 11.864533 6.776956 -2.652102
1290 65 1 12.834533 6.850282 -2.721379
1291 65 1 13.804533 6.737834 -2.767033
1292 65 1 14.774533 6.834360 -2.667051
1293 65 1 15.744533 6.824942 -2.722619
1294 65 1 16.714533 6.870388 -2.673010
1295 65 1 17.684533 6.694618 -2.644423
1296 65 1 18.654533 6.734104 -2.674682
1297 65 1 19.624533 6.790035 -2.828577
1298 65 1 20.594533 6.873029 -2.676280
1299 65 1 21.564533 6.694822 -2.802071
1300 65 1 22.534533 6.883597 -2.690466
1301 66 1 9.031207 8.697470 -6.386402
1302 66 1 10.001207 8.711703 -6.355002
1303 66 1 10.971207 8.828642 -6.272095
1304 66 1 11.941207 8.835113 -6.294112
1305 66 1 12.911207 8.891201 -6.256097
1306 66 1 13.881207 8.861097 -6.211463
1307 66 1 14.851207 8.826025 -6.351065
1308 66 1 15.821207 8.756559 -6.215140
1309 66 1 16.791207 8.772933 -6.305017
1310 66 1 17.761207 8.764867 -6.310629
1311 66 1 18.731207 8.734072 -6.296849
1312 66 1 19.701207 8.728721 -6.292576
1313 66 1 20.671207 8.842588 -6.389418
1314 66 1 21.641207 8.743675 -6.265892
1315 66 1 22.611207 8.797745 -6.240249
1316 66 1 23.581207 8.880427 -6.379939
1317 66 1 24.551207 8.801632 -6.287091
1318 66 1 25.521207 8.886086 -6.230742
1319 66 1 26.491207 8.812114 -6.353117
1320 66 1 27.461207 8.780847 -6.303849
1321 67 1 7.484368 -1.304822 5.341754
1322 67 1 8.454368 -1.146953 5.388264
1323 67 1 9.424368 -1.132276 5.341403
1324 67 1 10.394368 -1.232037 5.436580
1325 67 1 11.364368 -1.143150 5.493898
1326 67 1 12.334368 -1.169780 5.369067
1327 67 1 13.304368 -1.140829 5.490963
1328 67 1 14.274368 -1.149723 5.407103
1329 67 1 15.244368 -1.206310 5.317266
1330 67 1 16.214368 -1.149156 5.356591
1331 67 1 17.184368 -1.172025 5.435353
1332 67 1 18.154368 -1.289286 5.313972
1333 67 1 19.124368 -1.254201 5.469094
1334 67 1 20.094368 -1.219439 5.369228
1335 67 1 21.064368 -1.202105 5.389563
1336 67 1 22.034368 -1.203576 5.405964
1337 67 1 23.004368 -1.159446 5.425429
1338 67 1 23.974368 -1.223441 5.387431
1339 67 1 24.944368 -1.272085 5.299691
1340 67 1 25.914368 -1.155021 5.324606
1341 68 1 1.493799 -7.508675 9.907608
1342 68 1 2.463799 -7.461278 9.992072
1343 68 1 3.433799 -7.460239 10.016153
1344 68 1 4.403799 -7.488258 9.930112
1345 68 1 5.373799 -7.509040 9.874659
1346 68 1 6.343799 -7.547597 9.981197
1347 68 1 7.313799 -7.471693 9.895240
1348 68 1 8.283799 -7.402496 9.973693
1349 68 1 9.253799 -7.387543 9.865897
1350 68 1 10.223799 -7.570668 9.977242
1351 68 1 11.193799 -7.395555 9.904026
1352 68 1 12.163799 -7.501429 9.928465
1353 68 1 13.133799 -7.541248 9.880027
1354 68 1 14.103799 -7.381799 9.926013
1355 68 1 15.073799 -7.559467 10.024785
1356 68 1 16.043799 -7.520488 9.991754
1357 68 1 17.013799 -7.472246 10.055338
1358 68 1 17.983799 -7.512167 9.910270
1359 68 1 18.953799 -7.459996 9.884410
1360 68 1 19.923799 -7.444735 9.925642
1361 69 1 -7.693744 -7.734819 8.173105
1362 69 1 -6.723744 -7.857047 8.091635
1363 69 1 -5.753744 -7.803942 8.169213
1364 69 1 -4.783744 -7.817016 8.117072
1365 69 1 -3.813744 -7.850672 8.115314
1366 69 1 -2.843744 -7.719659 8.072332
1367 69 1 -1.873744 -7.788974 8.008199
1368 69 1 -0.903744 -7.715987 8.141893
1369 69 1 0.066256 -7.876505 8.087696
1370 69 1 1.036256 -7.779642 8.050549
1371 69 1 2.006256 -7.760088 8.114869
1372 69 1 2.976256 -7.829686 8.174112
1373 69 1 3.946256 -7.816996 8.124187
1374 69 1 4.916256 -7.787691 8.064361
1375 69 1 5.886256 -7.884768 8.077488
1376 69 1 6.856256 -7.713694 8.123267
1377 69 1 7.826256 -7.771900 8.076688
1378 69 1 8.796256 -7.814449 7.991098
1379 69 1 9.766256 -7.770987 8.027533
1380 69 1 10.736256 -7.714601 8.107332
1381 70 1 -0.334169 -7.239291 -3.831037
1382 70 1 0.635831 -7.177359 -3.822652
1383 70 1 1.605831 -7.107593 -3.841351
1384 70 1 2.575831 -7.222540 -3.904194
1385 70 1 3.545831 -7.263383 -3.911441
1386 70 1 4.515831 -7.215988 -3.802968
1387 70 1 5.485831 -7.088820 -3.843963
1388 70 1 6.455831 -7.122442 -3.768602
1389 70 1 7.425831 -7.201419 -3.835240
1390 70 1 8.395831 -7.098905 -3.868678
1391 70 1 9.365831 -7.077873 -3.844120
1392 70 1 10.335831 -7.213053 -3.939765
1393 70 1 11.305831 -7.138829 -3.750307
1394 70 1 12.275831 -7.219759 -3.825096
1395 70 1 13.245831 -7.132505 -3.860552
1396 70 1 14.215831 -7.203662 -3.794415
1397 70 1 15.185831 -7.148904 -3.815900
1398 70 1 16.155831 -7.092275 -3.765991
1399 70 1 17.125831 -7.189443 -3.834013
1400 70 1 18.095831 -7.141032 -3.862261
1401 71 1 7.006822 -3.777582 6.577302
1402 71 1 7.976822 -3.845284 6.534694
1403 71 1 8.946822 -3.860307 6.548720
1404 71 1 9.916822 -3.813068 6.630402
1405 71 1 10.886822 -3.766530 6.601210
1406 71 1 11.856822 -3.765225 6.544504
1407 71 1 12.826822 -3.852824 6.617519
1408 71 1 13.796822 -3.760744 6.487405
1409 71 1 14.766822 -3.824412 6.578150
1410 71 1 15.736822 -3.799272 6.551697
1411 71 1 16.706822 -3.851657 6.655567
1412 71 1 17.676822 -3.756622 6.596702
1413 71 1 18.646822 -3.778030 6.654477
1414 71 1 19.616822 -3.798647 6.525964
1415 71 1 20.586822 -3.854259 6.661768
1416 71 1 21.556822 -3.811661 6.641758
1417 71 1 22.526822 -3.764729 6.508618
1418 71 1 23.496822 -3.846535 6.649501
1419 71 1 24.466822 -3.810331 6.531748
1420 71 1 25.436822 -3.838644 6.642780
1421 72 1 -4.585032 5.604797 2.384888
1422 72 1 -3.615032 5.479549 2.435474
1423 72 1 -2.645032 5.563623 2.387254
1424 72 1 -1.675032 5.595141 2.297791
1425 72 1 -0.705032 5.484842 2.396595
1426 72 1 0.264968 5.542123 2.365838
1427 72 1 1.234968 5.463373 2.297539
1428 72 1 2.204968 5.440442 2.416323
1429 72 1 3.174968 5.627437 2.408432
1430 72 1 4.144968 5.442084 2.432599
1431 72 1 5.114968 5.541251 2.311386
1432 72 1 6.084968 5.485648 2.427215
1433 72 1 7.054968 5.499925 2.449268
1434 72 1 8.024968 5.463363 2.465916
1435 72 1 8.994968 5.498940 2.421633
1436 72 1 9.964968 5.608102 2.474673
1437 72 1 10.934968 5.611155 2.338499
1438 72 1 11.904968 5.569449 2.472062
1439 72 1 12.874968 5.633109 2.312664
1440 72 1 13.844968 5.542914 2.405540
1441 73 1 8.983271 9.365067 -9.770673
1442 73 1 9.953271 9.353116 -9.721971
1443 73 1 10.923271 9.422591 -9.723452
1444 73 1 11.893271 9.314608 -9.722070
1445 73 1 12.863271 9.305096 -9.686993
1446 73 1 13.833271 9.382908 -9.762024
1447 73 1 14.803271 9.386077 -9.755896
1448 73 1 15.773271 9.316318 -9.586326
1449 73 1 16.743271 9.374049 -9.580454
1450 73 1 17.713271 9.388762 -9.673335
1451 73 1 18.683271 9.370613 -9.622608
1452 73 1 19.653271 9.401713 -9.770456
1453 73 1 20.623271 9.323276 -9.618922
1454 73 1 21.593271 9.429526 -9.595906
1455 73 1 22.563271 9.289777 -9.639628
1456 73 1 23.533271 9.386699 -9.589746
1457 73 1 24.503271 9.298274 -9.634671
1458 73 1 25.473271 9.306701 -9.619811
1459 73 1 26.443271 9.361342 -9.634018
1460 73 1 27.413271 9.441267 -9.703264
1461 74 1 7.030769 2.265318 -1.088094
1462 74 1 8.000769 2.341026 -1.205249
1463 74 1 8.970769 2.280137 -1.092851
1464 74 1 9.940769 2.344122 -1.228161
1465 74 1 10.910769 2.357797 -1.250502
1466 74 1 11.880769 2.378701 -1.152307
1467 74 1 12.850769 2.316874 -1.235860
1468 74 1 13.820769 2.225151 -1.118000
1469 74 1 14.790769 2.392533 -1.086066
1470 74 1 15.760769 2.213909 -1.119201
1471 74 1 16.730769 2.360404 -1.211175
1472 74 1 17.700769 2.355015 -1.149446
1473 74 1 18.670769 2.326152 -1.088594
1474 74 1 19.640769 2.352924 -1.194041
1475 74 1 20.610769 2.399758 -1.070712
1476 74 1 21.580769 2.317876 -1.184445
1477 74 1 22.550769 2.384741 -1.244424
1478 74 1 23.520769 2.332496 -1.195027
1479 74 1 24.490769 2.331311 -1.121345
1480 74 1 25.460769 2.391070 -1.226569
1481 75 1 6.537260 -8.596586 3.411227
1482 75 1 7.507260 -8.682461 3.358414
1483 75 1 8.477260 -8.679927 3.329361
1484 75 1 9.447260 -8.770807 3.430662
1485 75 1 10.417260 -8.732842 3.347972
1486 75 1 11.387260 -8.575920 3.479372
1487 75 1 12.357260 -8.724079 3.341596
1488 75 1 13.327260 -8.731497 3.366032
1489 75 1 14.297260 -8.755772 3.462860
1490 75 1 15.267260 -8.716048 3.300619
1491 75 1 16.237260 -8.614302 3.422107
1492 75 1 17.207260 -8.598618 3.403134
1493 75 1 18.177260 -8.588663 3.306836
1494 75 1 19.147260 -8.662025 3.321957
1495 75 1 20.117260 -8.734660 3.310585
1496 75 1 21.087260 -8.709220 3.330665
1497 75 1 22.057260 -8.727715 3.430198
1498 75 1 23.027260 -8.720253 3.427790
1499 75 1 23.997260 -8.712420 3.414525
1500 75 1 24.967260 -8.684464 3.450382
1501 76 1 -3.723897 -2.753954 2.857244
1502 76 1 -2.753897 -2.745089 2.841671
1503 76 1 -1.783897 -2.739049 2.812382
1504 76 1 -0.813897 -2.702863 2.762677
1505 76 1 0.156103 -2.712979 2.931738
1506 76 1 1.126103 -2.848745 2.892178
1507 76 1 2.096103 -2.787392 2.949469
1508 76 1 3.066103 -2.785183 2.842538
1509 76 1 4.036103 -2.818014 2.905822
1510 76 1 5.006103 -2.864952 2.843522
1511 76 1 5.976103 -2.795684 2.860399
1512 76 1 6.946103 -2.825765 2.826227
1513 76 1 7.916103 -2.789840 2.909624
1514 76 1 8.886103 -2.789039 2.828094
1515 76 1 9.856103 -2.716702 2.870195
1516 76 1 10.826103 -2.757479 2.952693
1517 76 1 11.796103 -2.705935 2.778744
1518 76 1 12.766103 -2.697474 2.926107
1519 76 1 13.736103 -2.779587 2.767590
1520 76 1 14.706103 -2.701020 2.765022
1521 77 1 1.709748 -4.180133 -1.348114
1522 77 1 2.679748 -4.195532 -1.341390
1523 77 1 3.649748 -4.241812 -1.174590
1524 77 1 4.619748 -4.234312 -1.339974
1525 77 1 5.589748 -4.179563 -1.324801
1526 77 1 6.559748 -4.247989 -1.334462
1527 77 1 7.529748 -4.178117 -1.192472
1528 77 1 8.499748 -4.250440 -1.246069
1529 77 1 9.469748 -4.168055 -1.239507
1530 77 1 10.439748 -4.144006 -1.301504
1531 77 1 11.409748 -4.136583 -1.197973
1532 77 1 12.379748 -4.079353 -1.233061
1533 77 1 13.349748 -4.121175 -1.277040
1534 77 1 14.319748 -4.168596 -1.214010
1535 77 1 15.289748 -4.105745 -1.320180
1536 77 1 16.259748 -4.196296 -1.257957
1537 77 1 17.229748 -4.110615 -1.349804
1538 77 1 18.199748 -4.215570 -1.290300
1539 77 1 19.169748 -4.199233 -1.277634
1540 77 1 20.139748 -4.064525 -1.232810
1541 78 1 5.832829 -7.374010 5.105519
1542 78 1 6.802829 -7.251993 5.051381
1543 78 1 7.772829 -7.371299 5.033553
1544 78 1 8.742829 -7.354055 5.012226
1545 78 1 9.712829 -7.357711 5.095282
1546 78 1 10.682829 -7.372201 5.070077
1547 78 1 11.652829 -7.250919 5.003327
1548 78 1 12.622829 -7.233648 4.930976
1549 78 1 13.592829 -7.291837 5.058746
1550 78 1 14.562829 -7.336094 5.088965
1551 78 1 15.532829 -7.260578 4.967760
1552 78 1 16.502829 -7.345692 5.110399
1553 78 1 17.472829 -7.319480 5.117410
1554 78 1 18.442829 -7.280474 5.123126
1555 78 1 19.412829 -7.311710 5.121385
1556 78 1 20.382829 -7.216186 5.097088
1557 78 1 21.352829 -7.217554 5.005462
1558 78 1 22.322829 -7.372802 5.102365
1559 78 1 23.292829 -7.253456 4.964983
1560 78 1 24.262829 -7.374916 4.985916
1561 79 1 9.906347 -8.257834 -0.798947
1562 79 1 10.876347 -8.245547 -0.766772
1563 79 1 11.846347 -8.248165 -0.794471
1564 79 1 12.816347 -8.259861 -0.713355
1565 79 1 13.786347 -8.278759 -0.722608
1566 79 1 14.756347 -8.243476 -0.838988
1567 79 1 15.726347 -8.323607 -0.808578
1568 79 1 16.696347 -8.387662 -0.762147
1569 79 1 17.666347 -8.326103 -0.678632
1570 79 1 18.636347 -8.418979 -0.713308
1571 79 1 19.606347 -8.371627 -0.823011
1572 79 1 20.576347 -8.348811 -0.799584
1573 79 1 21.546347 -8.303449 -0.795470
1574 79 1 22.516347 -8.395615 -0.690650
1575 79 1 23.486347 -8.303556 -0.850886
1576 79 1 24.456347 -8.394070 -0.786156
1577 79 1 25.426347 -8.358746 -0.769656
1578 79 1 26.396347 -8.352020 -0.690295
1579 79 1 27.366347 -8.334700 -0.724797
1580 79 1 28.336347 -8.405353 -0.702393
1581 80 1 -9.030815 -1.844689 7.190537
1582 80 1 -8.060815 -1.887486 7.231358
1583 80 1 -7.090815 -1.876955 7.344565
1584 80 1 -6.120815 -2.005816 7.360097
1585 80 1 -5.150815 -1.854756 7.206045
1586 80 1 -4.180815 -1.839283 7.239798
1587 80 1 -3.210815 -1.862469 7.336943
1588 80 1 -2.240815 -1.894407 7.379403
1589 80 1 -1.270815 -1.874208 7.226167
1590 80 1 -0.300815 -1.933112 7.268354
1591 80 1 0.669185 -1.942030 7.275943
1592 80 1 1.639185 -1.869458 7.214135
1593 80 1 2.609185 -1.936783 7.352086
1594 80 1 3.579185 -1.958626 7.270442
1595 80 1 4.549185 -1.878354 7.382529
1596 80 1 5.519185 -1.951076 7.249570
1597 80 1 6.489185 -1.989676 7.338701
1598 80 1 7.459185 -1.934146 7.204816
1599 80 1 8.429185 -1.898820 7.233026
1600 80 1 9.399185 -1.921464 7.287634
1601 81 1 -8.346867 6.013427 -0.136759
1602 81 1 -7.376867 5.851688 -0.209203
1603 81 1 -6.406867 5.881882 -0.062425
1604 81 1 -5.436867 5.869441 -0.173492
1605 81 1 -4.466867 6.001984 -0.093143
1606 81 1 -3.496867 5.860971 -0.083684
1607 81 1 -2.526867 5.917265 -0.178556
1608 81 1 -1.556867 6.003079 -0.160934
1609 81 1 -0.586867 5.987171 -0.058979
1610 81 1 0.383133 5.861967 -0.102882
1611 81 1 1.353133 5.874711 -0.182050
1612 81 1 2.323133 5.934806 -0.025789
1613 81 1 3.293133 6.002856 -0.108557
1614 81 1 4.263133 5.984806 -0.109570
1615 81 1 5.233133 5.968929 -0.183293
1616 81 1 6.203133 6.036416 -0.051335
1617 81 1 7.173133 6.011556 -0.022893
1618 81 1 8.143133 5.854743 -0.189556
1619 81 1 9.113133 5.852944 -0.065226
1620 81 1 10.083133 5.908944 -0.143811
1621 82 1 -4.827173 9.402107 4.626482
1622 82 1 -3.857173 9.287442 4.645303
1623 82 1 -2.887173 9.300955 4.464411
1624 82 1 -1.917173 9.288314 4.649076
1625 82 1 -0.947173 9.256566 4.599462
1626 82 1 0.022827 9.439679 4.651806
1627 82 1 0.992827 9.343497 4.628673
1628 82 1 1.962827 9.345513 4.588690
1629 82 1 2.932827 9.364423 4.608280
1630 82 1 3.902827 9.391578 4.497910
1631 82 1 4.872827 9.427649 4.599997
1632 82 1 5.842827 9.330428 4.487956
1633 82 1 6.812827 9.438606 4.596431
1634 82 1 7.782827 9.329294 4.571068
1635 82 1 8.752827 9.271700 4.635775
1636 82 1 9.722827 9.313801 4.638323
1637 82 1 10.692827 9.357479 4.565057
1638 82 1 11.662827 9.293492 4.573691
1639 82 1 12.632827 9.289881 4.529180
1640 82 1 13.602827 9.359924 4.584983
1641 83 1 -9.240275 -6.362369 8.330021
1642 83 1 -8.270275 -6.290011 8.397727
1643 83 1 -7.300275 -6.211281 8.446991
1644 83 1 -6.330275 -6.193366 8.439487
1645 83 1 -5.360275 -6.273998 8.449488
1646 83 1 -4.390275 -6.335504 8.513729
1647 83 1 -3.420275 -6.191251 8.371606
1648 83 1 -2.450275 -6.376727 8.345228
1649 83 1 -1.480275 -6.348497 8.439635
1650 83 1 -0.510275 -6.281895 8.335981
1651 83 1 0.459725 -6.299632 8.399350
1652 83 1 1.429725 -6.339807 8.512145
1653 83 1 2.399725 -6.335135 8.343473
1654 83 1 3.369725 -6.212388 8.407168
1655 83 1 4.339725 -6.340145 8.367899
1656 83 1 5.309725 -6.236916 8.510915
1657 83 1 6.279725 -6.254152 8.419172
1658 83 1 7.249725 -6.371922 8.427107
1659 83 1 8.219725 -6.298078 8.397236
1660 83 1 9.189725 -6.273980 8.474375
1661 84 1 -7.354454 7.135239 -3.989574
1662 84 1 -6.384454 7.037128 -3.987219
1663 84 1 -5.414454 6.967393 -4.035311
1664 84 1 -4.444454 7.106266 -3.905715
1665 84 1 -3.474454 7.103519 -4.023295
1666 84 1 -2.504454 7.164643 -4.005791
1667 84 1 -1.534454 7.047748 -4.052716
1668 84 1 -0.564454 7.051746 -3.986149
1669 84 1 0.405546 7.027629 -4.012562
1670 84 1 1.375546 7.008231 -4.057263
1671 84 1 2.345546 7.014316 -3.903508
1672 84 1 3.315546 7.005281 -4.001853
1673 84 1 4.285546 7.108759 -4.069169
1674 84 1 5.255546 7.081719 -4.069383
1675 84 1 6.225546 7.107517 -4.004312
1676 84 1 7.195546 7.051748 -4.038323
1677 84 1 8.165546 7.074387 -4.047144
1678 84 1 9.135546 7.112120 -3.969074
1679 84 1 10.105546 6.994927 -3.968688
1680 84 1 11.075546 7.142398 -4.035239
1681 85 1 -6.084522 -8.346285 6.588543
1682 85 1 -5.114522 -8.321470 6.607625
1683 85 1 -4.144522 -8.342746 6.489749
1684 85 1 -3.174522 -8.387519 6.566077
1685 85 1 -2.204522 -8.305591 6.467024
1686 85 1 -1.234522 -8.474400 6.475062
1687 85 1 -0.264522 -8.431820 6.634156
1688 85 1 0.705478 -8.365040 6.611522
1689 85 1 1.675478 -8.395043 6.469739
1690 85 1 2.645478 -8.393825 6.480006
1691 85 1 3.615478 -8.399542 6.579676
1692 85 1 4.585478 -8.321229 6.552651
1693 85 1 5.555478 -8.403371 6.634101
1694 85 1 6.525478 -8.443521 6.596792
1695 85 1 7.495478 -8.393985 6.446427
1696 85 1 8.465478 -8.432495 6.532903
1697 85 1 9.435478 -8.381049 6.445935
1698 85 1 10.405478 -8.412786 6.507856
1699 85 1 11.375478 -8.416937 6.533830
1700 85 1 12.345478 -8.357730 6.523486
1701 86 1 -8.643643 3.866167 -7.230289
1702 86 1 -7.673643 3.898179 -7.232865
1703 86 1 -6.703643 3.905951 -7.184308
1704 86 1 -5.733643 3.829947 -7.220828
1705 86 1 -4.763643 4.000281 -7.159816
1706 86 1 -3.793643 3.819654 -7.269531
1707 86 1 -2.823643 3.946438 -7.184381
1708 86 1 -1.853643 3.820385 -7.080370
1709 86 1 -0.883643 3.882510 -7.198179
1710 86 1 0.086357 3.908100 -7.209629
1711 86 1 1.056357 3.895998 -7.169095
1712 86 1 2.026357 3.999007 -7.225696
1713 86 1 2.996357 3.938744 -7.163972
1714 86 1 3.966357 4.003830 -7.096706
1715 86 1 4.936357 3.856477 -7.087316
1716 86 1 5.906357 3.978810 -7.269200
1717 86 1 6.876357 3.872240 -7.203204
1718 86 1 7.846357 3.827038 -7.105778
1719 86 1 8.816357 3.994281 -7.138407
1720 86 1 9.786357 3.885904 -7.269729
1721 87 1 -1.059666 -7.876665 -4.641385
1722 87 1 -0.089666 -7.852251 -4.639739
1723 87 1 0.880334 -7.726250 -4.799655
1724 87 1 1.850334 -7.865682 -4.767511
1725 87 1 2.820334 -7.825404 -4.833916
1726 87 1 3.790334 -7.765356 -4.686743
1727 87 1 4.760334 -7.709797 -4.748738
1728 87 1 5.730334 -7.752381 -4.820779
1729 87 1 6.700334 -7.822043 -4.784051
1730 87 1 7.670334 -7.765635 -4.801167
1731 87 1 8.640334 -7.819908 -4.768383
1732 87 1 9.610334 -7.751711 -4.815820
1733 87 1 10.580334 -7.868579 -4.772730
1734 87 1 11.550334 -7.809915 -4.711885
1735 87 1 12.520334 -7.705900 -4.676372
1736 87 1 13.490334 -7.743712 -4.659235
1737 87 1 14.460334 -7.728605 -4.669202
1738 87 1 15.430334 -7.797919 -4.710976
1739 87 1 16.400334 -7.824397 -4.782021
1740 87 1 17.370334 -7.842851 -4.677055
1741 88 1 -4.910317 5.827036 -0.152302
1742 88 1 -3.940317 5.875625 -0.193022
1743 88 1 -2.970317 5.856236 -0.299136
1744 88 1 -2.000317 5.903375 -0.231389
1745 88 1 -1.030317 5.963376 -0.303278
1746 88 1 -0.060317 5.892291 -0.163716
1747 88 1 0.909683 5.950193 -0.229802
1748 88 1 1.879683 5.955802 -0.278796
1749 88 1 2.849683 5.834294 -0.137432
1750 88 1 3.819683 5.902296 -0.135991
1751 88 1 4.789683 5.828979 -0.187497
1752 88 1 5.759683 5.874051 -0.217098
1753 88 1 6.729683 5.835140 -0.258017
1754 88 1 7.699683 5.893301 -0.114558
1755 88 1 8.669683 5.959840 -0.299815
1756 88 1 9.639683 5.846647 -0.135065
1757 88 1 10.609683 5.994835 -0.196634
1758 88 1 11.579683 5.962741 -0.182921
1759 88 1 12.549683 5.954092 -0.261806
1760 88 1 13.519683 5.970596 -0.252862
1761 89 1 4.926207 -1.147199 -0.368235
1762 89 1 5.896207 -1.001085 -0.229134
1763 89 1 6.866207 -1.049374 -0.288397
1764 89 1 7.836207 -1.044011 -0.381361
1765 89 1 8.806207 -1.032623 -0.212780
1766 89 1 9.776207 -1.065625 -0.348699
1767 89 1 10.746207 -1.125400 -0.299250
1768 89 1 11.716207 -1.155220 -0.378773
1769 89 1 12.686207 -1.111960 -0.250420
1770 89 1 13.656207 -1.132461 -0.189821
1771 89 1 14.626207 -1.103950 -0.362182
1772 89 1 15.596207 -1.151615 -0.321718
1773 89 1 16.566207 -1.104734 -0.334513
1774 89 1 17.536207 -1.140970 -0.267169
1775 89 1 18.506207 -1.030635 -0.275219
1776 89 1 19.476207 -1.031525 -0.264236
1777 89 1 20.446207 -1.174188 -0.206831
1778 89 1 21.416207 -1.115383 -0.189907
1779 89 1 22.386207 -0.998227 -0.319376
1780 89 1 23.356207 -1.131141 -0.336274
1781 90 1 7.330650 5.444798 0.923357
1782 90 1 8.300650 5.600732 0.980285
1783 90 1 9.270650 5.590781 1.059406
1784 90 1 10.240650 5.626529 1.068469
1785 90 1 11.210650 5.525005 1.030827
1786 90 1 12.180650 5.531602 0.950631
1787 90 1 13.150650 5.471366 0.955629
1788 90 1 14.120650 5.585377 1.030429
1789 90 1 15.090650 5.458416 0.968199
1790 90 1 16.060650 5.587237 1.021119
1791 90 1 17.030650 5.611829 0.933324
1792 90 1 18.000650 5.600029 0.962740
1793 90 1 18.970650 5.501375 0.904272
1794 90 1 19.940650 5.565915 1.037019
1795 90 1 20.910650 5.531278 1.003085
1796 90 1 21.880650 5.506157 0.900372
1797 90 1 22.850650 5.558380 0.918964
1798 90 1 23.820650 5.492238 0.987451
1799 90 1 24.790650 5.626915 1.074375
1800 90 1 25.760650 5.552091 1.089235
1801 91 1 0.534230 -8.525045 -3.262336
1802 91 1 1.504230 -8.565462 -3.418197
1803 91 1 2.474230 -8.500829 -3.269247
1804 91 1 3.444230 -8.509616 -3.234790
1805 91 1 4.414230 -8.569633 -3.374310
1806 91 1 5.384230 -8.430861 -3.306536
1807 91 1 6.354230 -8.601764 -3.403950
1808 91 1 7.324230 -8.468854 -3.381283
1809 91 1 8.294230 -8.476910 -3.392812
1810 91 1 9.264230 -8.573571 -3.278692
1811 91 1 10.234230 -8.567842 -3.352908
1812 91 1 11.204230 -8.460351 -3.307679
1813 91 1 12.174230 -8.586168 -3.402146
1814 91 1 13.144230 -8.459354 -3.283159
1815 91 1 14.114230 -8.478908 -3.369601
1816 91 1 15.084230 -8.559403 -3.413813
1817 91 1 16.054230 -8.616135 -3.265670
1818 91 1 17.024230 -8.533874 -3.355249
1819 91 1 17.994230 -8.579790 -3.253924
1820 91 1 18.964230 -8.547428 -3.424396
1821 92 1 2.512807 -9.303557 0.000721
1822 92 1 3.482807 -9.208299 -0.068993
1823 92 1 4.452807 -9.181874 -0.050968
1824 92 1 5.422807 -9.243331 -0.080446
1825 92 1 6.392807 -9.152777 -0.136283
1826 92 1 7.362807 -9.300171 0.003547
1827 92 1 8.332807 -9.114661 -0.019125
1828 92 1 9.302807 -9.117727 -0.075248
1829 92 1 10.272807 -9.305816 -0.151807
1830 92 1 11.242807 -9.146632 -0.150148
1831 92 1 12.212807 -9.244499 -0.133993
1832 92 1 13.182807 -9.240087 -0.103622
1833 92 1 14.152807 -9.268914 -0.074067
1834 92 1 15.122807 -9.128078 -0.192612
1835 92 1 16.092807 -9.229895 -0.091014
1836 92 1 17.062807 -9.300114 -0.024160
1837 92 1 18.032807 -9.133399 -0.127908
1838 92 1 19.002807 -9.209910 -0.055369
1839 92 1 19.972807 -9.298636 -0.116571
1840 92 1 20.942807 -9.254440 -0.184458
1841 93 1 -9.073247 7.961764 1.511484
1842 93 1 -8.103247 7.975660 1.443851
1843 93 1 -7.133247 7.937494 1.378870
1844 93 1 -6.163247 8.030005 1.555225
1845 93 1 -5.193247 8.083080 1.533153
1846 93 1 -4.223247 7.945100 1.515419
1847 93 1 -3.253247 7.913166 1.452626
1848 93 1 -2.283247 7.991577 1.563919
1849 93 1 -1.313247 7.954341 1.402339
1850 93 1 -0.343247 7.970574 1.534117
1851 93 1 0.626753 7.941521 1.478996
1852 93 1 1.596753 8.038795 1.412959
1853 93 1 2.566753 7.974500 1.467209
1854 93 1 3.536753 8.110063 1.500197
1855 93 1 4.506753 8.107161 1.467230
1856 93 1 5.476753 7.978486 1.474022
1857 93 1 6.446753 8.019103 1.431567
1858 93 1 7.416753 8.033722 1.544023
1859 93 1 8.386753 7.943600 1.520121
1860 93 1 9.356753 7.992698 1.448500
1861 94 1 7.530899 1.512586 -0.307031
1862 94 1 8.500899 1.496272 -0.368951
1863 94 1 9.470899 1.524357 -0.259215
1864 94 1 10.440899 1.622134 -0.271797
1865 94 1 11.410899 1.544604 -0.288414
1866 94 1 12.380899 1.598431 -0.191009
1867 94 1 13.350899 1.579849 -0.346833
1868 94 1 14.320899 1.505597 -0.259636
1869 94 1 15.290899 1.518342 -0.286918
1870 94 1 16.260899 1.568864 -0.321968
1871 94 1 17.230899 1.659297 -0.345511
1872 94 1 18.200899 1.626805 -0.207120
1873 94 1 19.170899 1.501907 -0.312577
1874 94 1 20.140899 1.634480 -0.212296
1875 94 1 21.110899 1.619722 -0.229338
1876 94 1 22.080899 1.509507 -0.351760
1877 94 1 23.050899 1.516100 -0.257372
1878 94 1 24.020899 1.634035 -0.367782
1879 94 1 24.990899 1.554535 -0.257635
1880 94 1 25.960899 1.565840 -0.270137
1881 95 1 -0.937826 -9.180502 9.516535
1882 95 1 0.032174 -9.311644 9.642921
1883 95 1 1.002174 -9.129252 9.685613
1884 95 1 1.972174 -9.236090 9.656367
1885 95 1 2.942174 -9.194957 9.565774
1886 95 1 3.912174 -9.269102 9.592704
1887 95 1 4.882174 -9.289454 9.563536
1888 95 1 5.852174 -9.128418 9.560843
1889 95 1 6.822174 -9.205873 9.696151
1890 95 1 7.792174 -9.144488 9.596412
1891 95 1 8.762174 -9.186576 9.528088
1892 95 1 9.732174 -9.217789 9.659118
1893 95 1 10.702174 -9.217145 9.582971
1894 95 1 11.672174 -9.161384 9.637100
1895 95 1 12.642174 -9.179043 9.595780
1896 95 1 13.612174 -9.150313 9.680681
1897 95 1 14.582174 -9.271732 9.538342
1898 95 1 15.552174 -9.166384 9.605538
1899 95 1 16.522174 -9.226270 9.672909
1900 95 1 17.492174 -9.239133 9.520718
1901 96 1 3.788381 -1.338603 7.474683
1902 96 1 4.758381 -1.348298 7.467857
1903 96 1 5.728381 -1.408704 7.424984
1904 96 1 6.698381 -1.412421 7.595506
1905 96 1 7.668381 -1.462857 7.589069
1906 96 1 8.638381 -1.383560 7.549674
1907 96 1 9.608381 -1.318718 7.569859
1908 96 1 10.578381 -1.451812 7.612273
1909 96 1 11.548381 -1.495376 7.468919
1910 96 1 12.518381 -1.420246 7.459252
1911 96 1 13.488381 -1.352192 7.476907
1912 96 1 14.458381 -1.457814 7.561055
1913 96 1 15.428381 -1.363650 7.552708
1914 96 1 16.398381 -1.489653 7.517321
1915 96 1 17.368381 -1.479682 7.446387
1916 96 1 18.338381 -1.385303 7.501299
1917 96 1 19.308381 -1.304987 7.436202
1918 96 1 20.278381 -1.373074 7.425299
1919 96 1 21.248381 -1.341296 7.418388
1920 96 1 22.218381 -1.443840 7.437423
1921 97 1 0.998353 9.917268 -5.516628
1922 97 1 1.968353 9.897450 -5.580405
1923 97 1 2.938353 9.764832 -5.632091
1924 97 1 3.908353 9.919618 -5.435899
1925 97 1 4.878353 9.897677 -5.577258
1926 97 1 5.848353 9.783787 -5.514191
1927 97 1 6.818353 9.873599 -5.501116
1928 97 1 7.788353 9.751939 -5.602876
1929 97 1 8.758353 9.845699 -5.503609
1930 97 1 9.728353 9.842389 -5.512445
1931 97 1 10.698353 9.921027 -5.556337
1932 97 1 11.668353 9.916919 -5.559612
1933 97 1 12.638353 9.761802 -5.519636
1934 97 1 13.608353 9.743991 -5.587888
1935 97 1 14.578353 9.921214 -5.438631
1936 97 1 15.548353 9.830956 -5.575616
1937 97 1 16.518353 9.741462 -5.534828
1938 97 1 17.488353 9.804189 -5.628443
1939 97 1 18.458353 9.781796 -5.496721
1940 97 1 19.428353 9.787441 -5.583454
1941 98 1 1.697963 6.358670 -2.512162
1942 98 1 2.667963 6.368208 -2.614335
1943 98 1 3.637963 6.342554 -2.635978
1944 98 1 4.607963 6.452011 -2.505040
1945 98 1 5.577963 6.388016 -2.511704
1946 98 1 6.547963 6.398654 -2.697415
1947 98 1 7.517963 6.360180 -2.674251
1948 98 1 8.487963 6.336481 -2.564282
1949 98 1 9.457963 6.388817 -2.608993
1950 98 1 10.427963 6.351078 -2.690507
1951 98 1 11.397963 6.329118 -2.687762
1952 98 1 12.367963 6.426098 -2.662180
1953 98 1 13.337963 6.390910 -2.557137
1954 98 1 14.307963 6.302648 -2.645611
1955 98 1 15.277963 6.456523 -2.545967
1956 98 1 16.247963 6.456152 -2.509508
1957 98 1 17.217963 6.403283 -2.620229
1958 98 1 18.187963 6.428064 -2.663117
1959 98 1 19.157963 6.360928 -2.625460
1960 98 1 20.127963 6.446009 -2.618798
1961 99 1 -2.380691 4.158910 8.968145
1962 99 1 -1.410691 4.133794 8.940307
1963 99 1 -0.440691 4.288629 8.935811
1964 99 1 0.529309 4.266804 8.901433
1965 99 1 1.499309 4.225662 8.903971
1966 99 1 2.469309 4.189548 8.798948
1967 99 1 3.439309 4.258973 8.957237
1968 99 1 4.409309 4.300887 8.920273
1969 99 1 5.379309 4.148815 8.826422
1970 99 1 6.349309 4.131108 8.985258
1971 99 1 7.319309 4.222478 8.945462
1972 99 1 8.289309 4.292411 8.883445
1973 99 1 9.259309 4.303718 8.938948
1974 99 1 10.229309 4.149520 8.842272
1975 99 1 11.199309 4.199196 8.891699
1976 99 1 12.169309 4.223700 8.806799
1977 99 1 13.139309 4.280140 8.984268
1978 99 1 14.109309 4.195181 8.966823
1979 99 1 15.079309 4.232914 8.934568
1980 99 1 16.049309 4.197888 8.826153
1981 100 1 -1.533548 -6.767091 0.041925
1982 100 1 -0.563548 -6.714160 0.178626
1983 100 1 0.406452 -6.759195 0.014453
1984 100 1 1.376452 -6.785046 0.149832
1985 100 1 2.346452 -6.753520 0.016890
1986 100 1 3.316452 -6.724633 0.015199
1987 100 1 4.286452 -6.733928 0.121670
1988 100 1 5.256452 -6.818890 0.066369
1989 100 1 6.226452 -6.809700 0.161103
1990 100 1 7.196452 -6.824317 0.117651
1991 100 1 8.166452 -6.689865 0.127013
1992 100 1 9.136452 -6.679665 0.142046
1993 100 1 10.106452 -6.700570 0.172310
1994 100 1 11.076452 -6.757560 0.021096
1995 100 1 12.046452 -6.841388 0.074582
1996 100 1 13.016452 -6.731036 0.032889
1997 100 1 13.986452 -6.826382 0.144313
1998 100 1 14.956452 -6.662222 0.003446
1999 100 1 15.926452 -6.792923 0.062331
2000 100 1 16.896452 -6.648028 -0.002218
2001 101 1 9.299494 -6.525762 2.397898
2002 101 1 10.269494 -6.513094 2.483389
2003 101 1 11.239494 -6.537322 2.429645
2004 101 1 12.209494 -6.633701 2.438648
2005 101 1 13.179494 -6.539502 2.440749
2006 101 1 14.149494 -6.619405 2.459053
2007 101 1 15.119494 -6.603058 2.374372
2008 101 1 16.089494 -6.689507 2.457032
2009 101 1 17.059494 -6.630096 2.418719
2010 101 1 18.029494 -6.519328 2.379357
2011 101 1 18.999494 -6.564420 2.390762
2012 101 1 19.969494 -6.666083 2.454452
2013 101 1 20.939494 -6.696079 2.403826
2014 101 1 21.909494 -6.571490 2.538487
2015 101 1 22.879494 -6.652345 2.383221
2016 101 1 23.849494 -6.552578 2.370764
2017 101 1 24.819494 -6.679703 2.419918
2018 101 1 25.789494 -6.655141 2.394925
2019 101 1 26.759494 -6.631543 2.545531
2020 101 1 27.729494 -6.602489 2.471920
2021 102 1 -4.841497 6.152386 -6.123510
2022 102 1 -3.871497 6.210263 -6.178646
2023 102 1 -2.901497 6.033618 -6.203014
2024 102 1 -1.931497 6.194416 -6.064205
2025 102 1 -0.961497 6.209094 -6.120249
2026 102 1 0.008503 6.149447 -6.070765
2027 102 1 0.978503 6.223488 -6.213585
2028 102 1 1.948503 6.166379 -6.058044
2029 102 1 2.918503 6.151089 -6.045959
2030 102 1 3.888503 6.219841 -6.165289
2031 102 1 4.858503 6.130182 -6.096180
2032 102 1 5.828503 6.159513 -6.081390
2033 102 1 6.798503 6.086142 -6.074044
2034 102 1 7.768503 6.229124 -6.243032
2035 102 1 8.738503 6.230020 -6.066817
2036 102 1 9.708503 6.068362 -6.137650
2037 102 1 10.678503 6.199971 -6.125217
2038 102 1 11.648503 6.045897 -6.241026
2039 102 1 12.618503 6.213801 -6.076734
2040 102 1 13.588503 6.032103 -6.153501
2041 103 1 -6.808982 0.150384 -9.469712
2042 103 1 -5.838982 0.271800 -9.376983
2043 103 1 -4.868982 0.142645 -9.382864
2044 103 1 -3.898982 0.293676 -9.456907
2045 103 1 -2.928982 0.311777 -9.457898
2046 103 1 -1.958982 0.297925 -9.515846
2047 103 1 -0.988982 0.242988 -9.414753
2048 103 1 -0.018982 0.127106 -9.364346
2049 103 1 0.951018 0.289652 -9.470649
2050 103 1 1.921018 0.120610 -9.410013
2051 103 1 2.891018 0.132423 -9.543577
2052 103 1 3.861018 0.289322 -9.440771
2053 103 1 4.831018 0.255785 -9.409119
2054 103 1 5.801018 0.152907 -9.394572
2055 103 1 6.771018 0.131923 -9.459852
2056 103 1 7.741018 0.192622 -9.463063
2057 103 1 8.711018 0.125195 -9.559925
2058 103 1 9.681018 0.159067 -9.494744
2059 103 1 10.651018 0.219214 -9.469175
2060 103 1 11.621018 0.311988 -9.482390
2061 104 1 -9.452071 4.422388 -6.959873
2062 104 1 -8.482071 4.251954 -6.927349
2063 104 1 -7.512071 4.349505 -7.021950
2064 104 1 -6.542071 4.341996 -7.004328
2065 104 1 -5.572071 4.326373 -6.982287
2066 104 1 -4.602071 4.246838 -6.924875
2067 104 1 -3.632071 4.387656 -7.007661
2068 104 1 -2.662071 4.422505 -7.042910
2069 104 1 -1.692071 4.243622 -6.942343
2070 104 1 -0.722071 4.310185 -6.963407
2071 104 1 0.247929 4.314566 -6.947186
2072 104 1 1.217929 4.392349 -7.101682
2073 104 1 2.187929 4.257318 -6.977058
2074 104 1 3.157929 4.403709 -7.111537
2075 104 1 4.127929 4.377615 -6.932933
2076 104 1 5.097929 4.352521 -6.919983
2077 104 1 6.067929 4.247547 -7.115544
2078 104 1 7.037929 4.360812 -6.956317
2079 104 1 8.007929 4.253756 -6.941209
2080 104 1 8.977929 4.388904 -7.071173
2081 105 1 -2.023284 -2.836389 -7.726273
2082 105 1 -1.053284 -2.903871 -7.677180
2083 105 1 -0.083284 -2.791813 -7.737164
2084 105 1 0.886716 -2.914646 -7.676300
2085 105 1 1.856716 -2.772182 -7.785956
2086 105 1 2.826716 -2.799228 -7.841279
2087 105 1 3.796716 -2.799632 -7.713570
2088 105 1 4.766716 -2.778722 -7.725328
2089 105 1 5.736716 -2.789914 -7.761575
2090 105 1 6.706716 -2.767438 -7.720763
2091 105 1 7.676716 -2.832190 -7.763974
2092 105 1 8.646716 -2.840588 -7.770223
2093 105 1 9.616716 -2.721984 -7.736870
2094 105 1 10.586716 -2.775587 -7.812385
2095 105 1 11.556716 -2.720363 -7.805781
2096 105 1 12.526716 -2.756641 -7.792162
2097 105 1 13.496716 -2.880051 -7.757511
2098 105 1 14.466716 -2.841193 -7.797155
2099 105 1 15.436716 -2.884176 -7.807979
2100 105 1 16.406716 -2.842682 -7.809683
2101 106 1 4.788443 -5.618439 8.735491
2102 106 1 5.758443 -5.593548 8.716351
2103 106 1 6.728443 -5.611813 8.749027
2104 106 1 7.698443 -5.540772 8.753167
2105 106 1 8.668443 -5.463569 8.640496
2106 106 1 9.638443 -5.464151 8.642829
2107 106 1 10.608443 -5.616329 8.720829
2108 106 1 11.578443 -5.641052 8.616273
2109 106 1 12.548443 -5.557224 8.734087
2110 106 1 13.518443 -5.525092 8.697177
2111 106 1 14.488443 -5.490644 8.614446
2112 106 1 15.458443 -5.627811 8.697811
2113 106 1 16.428443 -5.471261 8.747738
2114 106 1 17.398443 -5.471730 8.688882
2115 106 1 18.368443 -5.518235 8.768756
2116 106 1 19.338443 -5.516186 8.742419
2117 106 1 20.308443 -5.574430 8.611803
2118 106 1 21.278443 -5.503063 8.710673
2119 106 1 22.248443 -5.538621 8.613147
2120 106 1 23.218443 -5.607105 8.648750
2121 107 1 -6.702025 9.322798 -1.565265
2122 107 1 -5.732025 9.226760 -1.545413
2123 107 1 -4.762025 9.370227 -1.444529
2124 107 1 -3.792025 9.343021 -1.445138
2125 107 1 -2.822025 9.232004 -1.563250
2126 107 1 -1.852025 9.349977 -1.552448
2127 107 1 -0.882025 9.388205 -1.508320
2128 107 1 0.087975 9.407523 -1.448083
2129 107 1 1.057975 9.396464 -1.381643
2130 107 1 2.027975 9.209122 -1.473013
2131 107 1 2.997975 9.295840 -1.404860
2132 107 1 3.967975 9.235724 -1.381412
2133 107 1 4.937975 9.275464 -1.478091
2134 107 1 5.907975 9.317317 -1.425858
2135 107 1 6.877975 9.259190 -1.503388
2136 107 1 7.847975 9.366752 -1.542514
2137 107 1 8.817975 9.276336 -1.545075
2138 107 1 9.787975 9.299120 -1.438513
2139 107 1 10.757975 9.270298 -1.523127
2140 107 1 11.727975 9.358826 -1.393178
2141 108 1 -1.801007 -1.419948 -3.228691
2142 108 1 -0.831007 -1.557870 -3.318406
2143 108 1 0.138993 -1.501208 -3.309399
2144 108 1 1.108993 -1.581952 -3.296164
2145 108 1 2.078993 -1.504634 -3.216991
2146 108 1 3.048993 -1.511170 -3.237557
2147 108 1 4.018993 -1.425938 -3.286490
2148 108 1 4.988993 -1.446052 -3.211628
2149 108 1 5.958993 -1.534901 -3.238391
2150 108 1 6.928993 -1.415157 -3.210870
2151 108 1 7.898993 -1.490609 -3.274380
2152 108 1 8.868993 -1.489293 -3.306571
2153 108 1 9.838993 -1.516838 -3.235334
2154 108 1 10.808993 -1.465020 -3.328462
2155 108 1 11.778993 -1.580270 -3.180799
2156 108 1 12.748993 -1.597477 -3.219175
2157 108 1 13.718993 -1.562187 -3.180217
2158 108 1 14.688993 -1.601965 -3.182245
2159 108 1 15.658993 -1.438867 -3.247894
2160 108 1 16.628993 -1.562379 -3.269229
2161 109 1 9.810647 -9.318623 1.478888
2162 109 1 10.780647 -9.492440 1.410472
2163 109 1 11.750647 -9.316435 1.431620
2164 109 1 12.720647 -9.405031 1.442198
2165 109 1 13.690647 -9.490445 1.364925
2166 109 1 14.660647 -9.465807 1.558633
2167 109 1 15.630647 -9.438545 1.510926
2168 109 1 16.600647 -9.351128 1.412656
2169 109 1 17.570647 -9.468380 1.525562
2170 109 1 18.540647 -9.432646 1.540760
2171 109 1 19.510647 -9.360131 1.528125
2172 109 1 20.480647 -9.468947 1.418678
2173 109 1 21.450647 -9.392788 1.386690
2174 109 1 22.420647 -9.506867 1.462116
2175 109 1 23.390647 -9.422285 1.508409
2176 109 1 24.360647 -9.430820 1.510268
2177 109 1 25.330647 -9.341432 1.366565
2178 109 1 26.300647 -9.318549 1.409397
2179 109 1 27.270647 -9.453893 1.470189
2180 109 1 28.240647 -9.333968 1.546454
2181 110 1 -2.845316 -3.539308 -7.728828
2182 110 1 -1.875316 -3.503294 -7.803653
2183 110 1 -0.905316 -3.518465 -7.880709
2184 110 1 0.064684 -3.478638 -7.815478
2185 110 1 1.034684 -3.492991 -7.710537
2186 110 1 2.004684 -3.438334 -7.753014
2187 110 1 2.974684 -3.516342 -7.768760
2188 110 1 3.944684 -3.445066 -7.835353
2189 110 1 4.914684 -3.429970 -7.832039
2190 110 1 5.884684 -3.468959 -7.760607
2191 110 1 6.854684 -3.427201 -7.781580
2192 110 1 7.824684 -3.552612 -7.778428
2193 110 1 8.794684 -3.522389 -7.831483
2194 110 1 9.764684 -3.564959 -7.869712
2195 110 1 10.734684 -3.540593 -7.889463
2196 110 1 11.704684 -3.561996 -7.705227
2197 110 1 12.674684 -3.436768 -7.750277
2198 110 1 13.644684 -3.459275 -7.860564
2199 110 1 14.614684 -3.499324 -7.767785
2200 110 1 15.584684 -3.546614 -7.888550
2201 111 1 -6.974910 -7.687855 7.685899
2202 111 1 -6.004910 -7.835178 7.731079
2203 111 1 -5.034910 -7.735039 7.849946
2204 111 1 -4.064910 -7.756968 7.733172
2205 111 1 -3.094910 -7.768173 7.748234
2206 111 1 -2.124910 -7.673530 7.791547
2207 111 1 -1.154910 -7.732780 7.794353
2208 111 1 -0.184910 -7.658533 7.754639
2209 111 1 0.785090 -7.685643 7.828029
2210 111 1 1.755090 -7.823110 7.672989
2211 111 1 2.725090 -7.732475 7.656957
2212 111 1 3.695090 -7.755691 7.755324
2213 111 1 4.665090 -7.663159 7.816736
2214 111 1 5.635090 -7.844486 7.777591
2215 111 1 6.605090 -7.767123 7.759694
2216 111 1 7.575090 -7.704469 7.811645
2217 111 1 8.545090 -7.774470 7.774796
2218 111 1 9.515090 -7.836164 7.789611
2219 111 1 10.485090 -7.844201 7.852166
2220 111 1 11.455090 -7.685208 7.785796
2221 112 1 8.243387 -6.673436 9.777946
2222 112 1 9.213387 -6.732261 9.632720
2223 112 1 10.183387 -6.629627 9.622091
2224 112 1 11.153387 -6.704177 9.611049
2225 112 1 12.123387 -6.718791 9.746180
2226 112 1 13.093387 -6.692075 9.626192
2227 112 1 14.063387 -6.789177 9.585671
2228 112 1 15.033387 -6.616791 9.760084
2229 112 1 16.003387 -6.663036 9.657231
2230 112 1 16.973387 -6.618405 9.620122
2231 112 1 17.943387 -6.650325 9.715415
2232 112 1 18.913387 -6.619441 9.766352
2233 112 1 19.883387 -6.690556 9.659264
2234 112 1 20.853387 -6.772411 9.734229
2235 112 1 21.823387 -6.705866 9.730954
2236 112 1 22.793387 -6.763384 9.673712
2237 112 1 23.763387 -6.752736 9.611176
2238 112 1 24.733387 -6.794303 9.714033
2239 112 1 25.703387 -6.631825 9.651552
2240 112 1 26.673387 -6.697721 9.730801
2241 113 1 5.446803 5.227730 0.981278
2242 113 1 6.416803 5.129226 0.814949
2243 113 1 7.386803 5.167075 0.945810
2244 113 1 8.356803 5.048238 0.835903
2245 113 1 9.326803 5.201776 0.868017
2246 113 1 10.296803 5.050523 0.804624
2247 113 1 11.266803 5.128927 0.869883
2248 113 1 12.236803 5.226382 0.976514
2249 113 1 13.206803 5.244143 0.952013
2250 113 1 14.176803 5.098752 0.814080
2251 113 1 15.146803 5.161196 0.792566
2252 113 1 16.116803 5.221756 0.894228
2253 113 1 17.086803 5.163845 0.918668
2254 113 1 18.056803 5.068073 0.855481
2255 113 1 19.026803 5.076970 0.841155
2256 113 1 19.996803 5.211134 0.845835
2257 113 1 20.966803 5.175369 0.944394
2258 113 1 21.936803 5.076887 0.949526
2259 113 1 22.906803 5.182484 0.896954
2260 113 1 23.876803 5.108188 0.796337
2261 114 1 2.147307 7.425405 -7.341205
2262 114 1 3.117307 7.406759 -7.297490
2263 114 1 4.087307 7.411194 -7.247232
2264 114 1 5.057307 7.344220 -7.416269
2265 114 1 6.027307 7.382250 -7.380323
2266 114 1 6.997307 7.342973 -7.233793
2267 114 1 7.967307 7.308446 -7.265090
2268 114 1 8.937307 7.288814 -7.281450
2269 114 1 9.907307 7.388981 -7.244634
2270 114 1 10.877307 7.383546 -7.388494
2271 114 1 11.847307 7.432837 -7.334917
2272 114 1 12.817307 7.388778 -7.319177
2273 114 1 13.787307 7.458790 -7.421415
2274 114 1 14.757307 7.416092 -7.383973
2275 114 1 15.727307 7.426483 -7.253218
2276 114 1 16.697307 7.381012 -7.332534
2277 114 1 17.667307 7.422276 -7.283605
2278 114 1 18.637307 7.450489 -7.369674
2279 114 1 19.607307 7.409798 -7.254227
2280 114 1 20.577307 7.322591 -7.313072
2281 115 1 -0.941946 -9.648777 8.560924
2282 115 1 0.028054 -9.744378 8.648225
2283 115 1 0.998054 -9.648132 8.652029
2284 115 1 1.968054 -9.715135 8.505707
2285 115 1 2.938054 -9.641613 8.626783
2286 115 1 3.908054 -9.795205 8.609999
2287 115 1 4.878054 -9.641528 8.503999
2288 115 1 5.848054 -9.706011 8.656201
2289 115 1 6.818054 -9.801422 8.655350
2290 115 1 7.788054 -9.718617 8.544063
2291 115 1 8.758054 -9.690242 8.578426
2292 115 1 9.728054 -9.790568 8.552867
2293 115 1 10.698054 -9.668413 8.647673
2294 115 1 11.668054 -9.743516 8.548755
2295 115 1 12.638054 -9.679494 8.604859
2296 115 1 13.608054 -9.657016 8.606673
2297 115 1 14.578054 -9.691198 8.533481
2298 115 1 15.548054 -9.765924 8.632021
2299 115 1 16.518054 -9.733406 8.471771
2300 115 1 17.488054 -9.655673 8.606958
2301 116 1 -0.523965 -6.901763 -8.773456
2302 116 1 0.446035 -6.810781 -8.924293
2303 116 1 1.416035 -6.783769 -8.898043
2304 116 1 2.386035 -6.942721 -8.779170
2305 116 1 3.356035 -6.883512 -8.885755
2306 116 1 4.326035 -6.890688 -8.868884
2307 116 1 5.296035 -6.835197 -8.897500
2308 116 1 6.266035 -6.959001 -8.927982
2309 116 1 7.236035 -6.768670 -8.762316
2310 116 1 8.206035 -6.778588 -8.750256
2311 116 1 9.176035 -6.931984 -8.929582
2312 116 1 10.146035 -6.849686 -8.818880
2313 116 1 11.116035 -6.918243 -8.841461
2314 116 1 12.086035 -6.848816 -8.782904
2315 116 1 13.056035 -6.933355 -8.831474
2316 116 1 14.026035 -6.889458 -8.794479
2317 116 1 14.996035 -6.811079 -8.802693
2318 116 1 15.966035 -6.920042 -8.863569
2319 116 1 16.936035 -6.907391 -8.846299
2320 116 1 17.906035 -6.852401 -8.780849
2321 117 1 7.437904 -8.194718 -9.686367
2322 117 1 8.407904 -8.198649 -9.646592
2323 117 1 9.377904 -8.120840 -9.744702
2324 117 1 10.347904 -8.179889 -9.620810
2325 117 1 11.317904 -8.058428 -9.797412
2326 117 1 12.287904 -8.087690 -9.706802
2327 117 1 13.257904 -8.061016 -9.680498
2328 117 1 14.227904 -8.057974 -9.701671
2329 117 1 15.197904 -8.074095 -9.808295
2330 117 1 16.167904 -8.036482 -9.749706
2331 117 1 17.137904 -8.025653 -9.688576
2332 117 1 18.107904 -8.081256 -9.770963
2333 117 1 19.077904 -8.096440 -9.773263
2334 117 1 20.047904 -8.151326 -9.728746
2335 117 1 21.017904 -8.209855 -9.740499
2336 117 1 21.987904 -8.034708 -9.687837
2337 117 1 22.957904 -8.152444 -9.781946
2338 117 1 23.927904 -8.142395 -9.677977
2339 117 1 24.897904 -8.158526 -9.616638
2340 117 1 25.867904 -8.153641 -9.714727
2341 118 1 -8.434608 8.741828 8.674057
2342 118 1 -7.464608 8.834747 8.735104
2343 118 1 -6.494608 8.677214 8.715218
2344 118 1 -5.524608 8.769898 8.725726
2345 118 1 -4.554608 8.841812 8.718711
2346 118 1 -3.584608 8.768121 8.583667
2347 118 1 -2.614608 8.850228 8.681779
2348 118 1 -1.644608 8.831195 8.722533
2349 118 1 -0.674608 8.742650 8.644533
2350 118 1 0.295392 8.750122 8.567383
2351 118 1 1.265392 8.689834 8.697882
2352 118 1 2.235392 8.752969 8.636386
2353 118 1 3.205392 8.726181 8.704199
2354 118 1 4.175392 8.657949 8.762459
2355 118 1 5.145392 8.836119 8.731403
2356 118 1 6.115392 8.834946 8.732806
2357 118 1 7.085392 8.655860 8.695833
2358 118 1 8.055392 8.818800 8.581366
2359 118 1 9.025392 8.703324 8.597057
2360 118 1 9.995392 8.655936 8.673005
2361 119 1 -5.366376 -7.832889 -4.909204
2362 119 1 -4.396376 -7.863136 -4.794755
2363 119 1 -3.426376 -7.888434 -4.888301
2364 119 1 -2.456376 -7.801003 -4.943913
2365 119 1 -1.486376 -7.719628 -4.768833
2366 119 1 -0.516376 -7.716049 -4.820732
2367 119 1 0.453624 -7.814576 -4.862345
2368 119 1 1.423624 -7.863773 -4.819764
2369 119 1 2.393624 -7.900750 -4.876622
2370 119 1 3.363624 -7.881395 -4.814312
2371 119 1 4.333624 -7.840623 -4.803668
2372 119 1 5.303624 -7.746971 -4.845444
2373 119 1 6.273624 -7.820716 -4.834409
2374 119 1 7.243624 -7.829084 -4.962330
2375 119 1 8.213624 -7.779367 -4.866024
2376 119 1 9.183624 -7.735738 -4.929811
2377 119 1 10.153624 -7.902780 -4.880970
2378 119 1 11.123624 -7.746176 -4.776149
2379 119 1 12.093624 -7.770823 -4.811059
2380 119 1 13.063624 -7.882795 -4.850277
2381 120 1 -7.892159 0.226422 -4.470979
2382 120 1 -6.922159 0.192615 -4.344131
2383 120 1 -5.952159 0.129002 -4.378676
2384 120 1 -4.982159 0.136165 -4.362365
2385 120 1 -4.012159 0.095163 -4.421533
2386 120 1 -3.042159 0.207162 -4.455281
2387 120 1 -2.072159 0.183701 -4.338339
2388 120 1 -1.102159 0.141913 -4.444516
2389 120 1 -0.132159 0.127749 -4.411917
2390 120 1 0.837841 0.183191 -4.420114
2391 120 1 1.807841 0.095752 -4.314200
2392 120 1 2.777841 0.183058 -4.498569
2393 120 1 3.747841 0.231145 -4.308969
2394 120 1 4.717841 0.288305 -4.310377
2395 120 1 5.687841 0.243438 -4.323365
2396 120 1 6.657841 0.145883 -4.317206
2397 120 1 7.627841 0.290881 -4.381200
2398 120 1 8.597841 0.159165 -4.387721
2399 120 1 9.567841 0.274792 -4.448099
2400 120 1 10.537841 0.181620 -4.375583
2401 121 1 -9.995177 -2.041841 -7.569548
2402 121 1 -9.025177 -1.969826 -7.497141
2403 121 1 -8.055177 -1.878241 -7.593357
2404 121 1 -7.085177 -1.962983 -7.518662
2405 121 1 -6.115177 -2.034738 -7.584261
2406 121 1 -5.145177 -2.033433 -7.524380
2407 121 1 -4.175177 -1.899672 -7.658018
2408 121 1 -3.205177 -1.898234 -7.501848
2409 121 1 -2.235177 -2.038167 -7.616629
2410 121 1 -1.265177 -1.883854 -7.615553
2411 121 1 -0.295177 -1.900782 -7.571298
2412 121 1 0.674823 -2.034230 -7.659392
2413 121 1 1.644823 -2.061772 -7.638705
2414 121 1 2.614823 -1.979960 -7.521811
2415 121 1 3.584823 -1.934557 -7.671813
2416 121 1 4.554823 -1.986738 -7.661575
2417 121 1 5.524823 -2.065751 -7.635295
2418 121 1 6.494823 -1.911298 -7.620700
2419 121 1 7.464823 -1.997502 -7.622736
2420 121 1 8.434823 -1.909871 -7.513891
2421 122 1 2.380128 0.633080 -8.178568
2422 122 1 3.350128 0.745793 -8.128253
2423 122 1 4.320128 0.705537 -8.115635
2424 122 1 5.290128 0.811788 -8.217704
2425 122 1 6.260128 0.697154 -8.082803
2426 122 1 7.230128 0.763248 -8.265269
2427 122 1 8.200128 0.760796 -8.102315
2428 122 1 9.170128 0.788004 -8.149883
2429 122 1 10.140128 0.770775 -8.219937
2430 122 1 11.110128 0.801800 -8.082829
2431 122 1 12.080128 0.762321 -8.093542
2432 122 1 13.050128 0.729241 -8.273387
2433 122 1 14.020128 0.720255 -8.247588
2434 122 1 14.990128 0.724688 -8.091873
2435 122 1 15.960128 0.641552 -8.278741
2436 122 1 16.930128 0.633806 -8.224711
2437 122 1 17.900128 0.702155 -8.090029
2438 122 1 18.870128 0.702096 -8.192059
2439 122 1 19.840128 0.732819 -8.125730
2440 122 1 20.810128 0.752001 -8.210029
2441 123 1 0.306959 -2.562678 5.310076
2442 123 1 1.276959 -2.491128 5.180259
2443 123 1 2.246959 -2.576047 5.173164
2444 123 1 3.216959 -2.639692 5.164981
2445 123 1 4.186959 -2.557548 5.218151
2446 123 1 5.156959 -2.583970 5.126186
2447 123 1 6.126959 -2.486094 5.145717
2448 123 1 7.096959 -2.641410 5.265656
2449 123 1 8.066959 -2.562098 5.276810
2450 123 1 9.036959 -2.665910 5.183082
2451 123 1 10.006959 -2.524254 5.161811
2452 123 1 10.976959 -2.532626 5.116367
2453 123 1 11.946959 -2.501019 5.194432
2454 123 1 12.916959 -2.562765 5.299413
2455 123 1 13.886959 -2.608324 5.284730
2456 123 1 14.856959 -2.509601 5.185673
2457 123 1 15.826959 -2.584962 5.130643
2458 123 1 16.796959 -2.501073 5.260999
2459 123 1 17.766959 -2.631430 5.168929
2460 123 1 18.736959 -2.558203 5.271667
2461 124 1 1.360583 -8.489714 -3.619079
2462 124 1 2.330583 -8.354495 -3.656389
2463 124 1 3.300583 -8.391903 -3.642253
2464 124 1 4.270583 -8.326265 -3.602130
2465 124 1 5.240583 -8.502567 -3.525153
2466 124 1 6.210583 -8.346265 -3.628747
2467 124 1 7.180583 -8.379409 -3.626763
2468 124 1 8.150583 -8.464466 -3.496627
2469 124 1 9.120583 -8.454933 -3.580384
2470 124 1 10.090583 -8.400792 -3.522409
2471 124 1 11.060583 -8.375217 -3.535078
2472 124 1 12.030583 -8.408137 -3.571135
2473 124 1 13.000583 -8.506278 -3.578054
2474 124 1 13.970583 -8.510723 -3.654235
2475 124 1 14.940583 -8.325521 -3.641529
2476 124 1 15.910583 -8.507607 -3.512866
2477 124 1 16.880583 -8.515799 -3.565812
2478 124 1 17.850583 -8.335887 -3.560155
2479 124 1 18.820583 -8.492960 -3.520916
2480 124 1 19.790583 -8.520888 -3.526750
2481 125 1 -9.512935 9.490610 -4.361977
2482 125 1 -8.542935 9.489130 -4.298335
2483 125 1 -7.572935 9.477399 -4.432104
2484 125 1 -6.602935 9.549869 -4.386214
2485 125 1 -5.632935 9.614744 -4.411786
2486 125 1 -4.662935 9.566334 -4.319677
2487 125 1 -3.692935 9.607119 -4.449560
2488 125 1 -2.722935 9.497503 -4.306946
2489 125 1 -1.752935 9.539983 -4.328545
2490 125 1 -0.782935 9.623779 -4.282086
2491 125 1 0.187065 9.596193 -4.382666
2492 125 1 1.157065 9.547155 -4.389474
2493 125 1 2.127065 9.515365 -4.335477
2494 125 1 3.097065 9.538830 -4.372170
2495 125 1 4.067065 9.464665 -4.427634
2496 125 1 5.037065 9.465517 -4.400937
2497 125 1 6.007065 9.631223 -4.365919
2498 125 1 6.977065 9.583693 -4.290574
2499 125 1 7.947065 9.597264 -4.333377
2500 125 1 8.917065 9.531406 -4.342533
2501 126 1 7.257449 -7.081817 -1.839945
2502 126 1 8.227449 -7.111561 -1.820618
2503 126 1 9.197449 -7.056264 -1.960801
2504 126 1 10.167449 -7.225130 -1.813059
2505 126 1 11.137449 -7.038547 -1.964349
2506 126 1 12.107449 -7.079815 -1.951139
2507 126 1 13.077449 -7.061481 -1.832776
2508 126 1 14.047449 -7.068591 -1.839083
2509 126 1 15.017449 -7.045740 -1.903121
2510 126 1 15.987449 -7.069548 -1.935962
2511 126 1 16.957449 -7.120783 -1.826419
2512 126 1 17.927449 -7.195655 -1.986155
2513 126 1 18.897449 -7.159495 -1.904811
2514 126 1 19.867449 -7.101948 -1.791982
2515 126 1 20.837449 -7.095229 -1.965932
2516 126 1 21.807449 -7.081436 -1.963864
2517 126 1 22.777449 -7.037192 -1.827865
2518 126 1 23.747449 -7.190225 -1.805552
2519 126 1 24.717449 -7.034720 -1.868904
2520 126 1 25.687449 -7.144855 -1.833748
2521 127 1 5.495286 -8.385772 8.056192
2522 127 1 6.465286 -8.403812 7.935340
2523 127 1 7.435286 -8.438891 7.912345
2524 127 1 8.405286 -8.391606 7.962660
2525 127 1 9.375286 -8.362512 7.909120
2526 127 1 10.345286 -8.356903 7.933280
2527 127 1 11.315286 -8.346858 7.962576
2528 127 1 12.285286 -8.348771 7.868049
2529 127 1 13.255286 -8.429757 7.891361
2530 127 1 14.225286 -8.277795 8.023844
2531 127 1 15.195286 -8.412564 8.040661
2532 127 1 16.165286 -8.275551 7.972363
2533 127 1 17.135286 -8.394877 7.920551
2534 127 1 18.105286 -8.437238 7.977100
2535 127 1 19.075286 -8.414291 8.051402
2536 127 1 20.045286 -8.311418 7.971770
2537 127 1 21.015286 -8.446981 7.964581
2538 127 1 21.985286 -8.317913 8.028992
2539 127 1 22.955286 -8.267782 8.055066
2540 127 1 23.925286 -8.276338 7.962703
2541 128 1 9.984876 2.782548 0.488225
2542 128 1 10.954876 2.651552 0.441197
2543 128 1 11.924876 2.713557 0.427447
2544 128 1 12.894876 2.644178 0.461510
2545 128 1 13.864876 2.772259 0.438040
2546 128 1 14.834876 2.737889 0.383712
2547 128 1 15.804876 2.761121 0.490630
2548 128 1 16.774876 2.649919 0.452107
2549 128 1 17.744876 2.695421 0.371458
2550 128 1 18.714876 2.736895 0.308091
2551 128 1 19.684876 2.644380 0.427633
2552 128 1 20.654876 2.673938 0.489890
2553 128 1 21.624876 2.623410 0.399910
2554 128 1 22.594876 2.783819 0.434856
2555 128 1 23.564876 2.741866 0.390010
2556 128 1 24.534876 2.721850 0.328179
2557 128 1 25.504876 2.612232 0.444664
2558 128 1 26.474876 2.692880 0.367452
2559 128 1 27.444876 2.738514 0.373633
2560 128 1 28.414876 2.616627 0.312469
2561 129 1 7.477807 2.900545 2.249306
2562 129 1 8.447807 2.885259 2.100679
2563 129 1 9.417807 2.896674 2.254353
2564 129 1 10.387807 2.823291 2.126736
2565 129 1 11.357807 2.852641 2.138595
2566 129 1 12.327807 2.990225 2.181753
2567 129 1 13.297807 2.863317 2.239300
2568 129 1 14.267807 2.952869 2.162035
2569 129 1 15.237807 2.875093 2.216971
2570 129 1 16.207807 2.807377 2.065925
2571 129 1 17.177807 2.898570 2.255715
2572 129 1 18.147807 2.894396 2.150324
2573 129 1 19.117807 2.969937 2.233724
2574 129 1 20.087807 2.846123 2.227297
2575 129 1 21.057807 2.910050 2.124606
2576 129 1 22.027807 2.891813 2.120052
2577 129 1 22.997807 2.877096 2.202706
2578 129 1 23.967807 2.800677 2.120248
2579 129 1 24.937807 2.849284 2.132711
2580 129 1 25.907807 2.875565 2.081783
2581 130 1 5.494210 -8.527899 -6.888738
2582 130 1 6.464210 -8.496314 -6.833736
2583 130 1 7.434210 -8.639755 -6.702650
2584 130 1 8.404210 -8.601204 -6.729667
2585 130 1 9.374210 -8.522333 -6.851107
2586 130 1 10.344210 -8.667940 -6.877858
2587 130 1 11.314210 -8.651090 -6.794150
2588 130 1 12.284210 -8.623123 -6.724854
2589 130 1 13.254210 -8.595582 -6.746348
2590 130 1 14.224210 -8.641323 -6.794783
2591 130 1 15.194210 -8.574186 -6.883232
2592 130 1 16.164210 -8.586906 -6.694172
2593 130 1 17.134210 -8.492653 -6.836614
2594 130 1 18.104210 -8.497448 -6.734438
2595 130 1 19.074210 -8.547232 -6.875901
2596 130 1 20.044210 -8.518031 -6.713723
2597 130 1 21.014210 -8.618854 -6.864685
2598 130 1 21.984210 -8.675072 -6.721169
2599 130 1 22.954210 -8.525723 -6.810381
2600 130 1 23.924210 -8.515418 -6.766962
2601 131 1 -0.329972 -9.006549 2.438572
2602 131 1 0.640028 -9.181687 2.448011
2603 131 1 1.610028 -9.109232 2.376717
2604 131 1 2.580028 -9.139368 2.403991
2605 131 1 3.550028 -9.144021 2.387896
2606 131 1 4.520028 -9.074224 2.473045
2607 131 1 5.490028 -9.036121 2.309381
2608 131 1 6.460028 -9.059044 2.415147
2609 131 1 7.430028 -9.008358 2.433772
2610 131 1 8.400028 -9.173392 2.307759
2611 131 1 9.370028 -9.174120 2.363966
2612 131 1 10.340028 -9.074134 2.362803
2613 131 1 11.310028 -9.061067 2.441151
2614 131 1 12.280028 -9.010866 2.327647
2615 131 1 13.250028 -9.112266 2.488616
2616 131 1 14.220028 -9.081326 2.339611
2617 131 1 15.190028 -9.109448 2.452341
2618 131 1 16.160028 -9.138407 2.473986
2619 131 1 17.130028 -9.036704 2.347643
2620 131 1 18.100028 -9.133530 2.306764
2621 132 1 6.415770 0.706021 -1.469543
2622 132 1 7.385770 0.723874 -1.322923
2623 132 1 8.355770 0.832570 -1.495662
2624 132 1 9.325770 0.868513 -1.356377
2625 132 1 10.295770 0.770482 -1.385322
2626 132 1 11.265770 0.864776 -1.389309
2627 132 1 12.235770 0.770114 -1.397809
2628 132 1 13.205770 0.727494 -1.381663
2629 132 1 14.175770 0.719212 -1.482697
2630 132 1 15.145770 0.821483 -1.387493
2631 132 1 16.115770 0.774690 -1.365865
2632 132 1 17.085770 0.889196 -1.402598
2633 132 1 18.055770 0.844280 -1.362988
2634 132 1 19.025770 0.701078 -1.330425
2635 132 1 19.995770 0.837155 -1.365988
2636 132 1 20.965770 0.845613 -1.413837
2637 132 1 21.935770 0.872707 -1.408623
2638 132 1 22.905770 0.751817 -1.324004
2639 132 1 23.875770 0.888119 -1.459299
2640 132 1 24.845770 0.823489 -1.326004
2641 133 1 5.866999 -1.730564 -5.574081
2642 133 1 6.836999 -1.719653 -5.549654
2643 133 1 7.806999 -1.684825 -5.566966
2644 133 1 8.776999 -1.605238 -5.630303
2645 133 1 9.746999 -1.617500 -5.618039
2646 133 1 10.716999 -1.629499 -5.522627
2647 133 1 11.686999 -1.710778 -5.523479
2648 133 1 12.656999 -1.721106 -5.669473
2649 133 1 13.626999 -1.736558 -5.492827
2650 133 1 14.596999 -1.759636 -5.636611
2651 133 1 15.566999 -1.662078 -5.664917
2652 133 1 16.536999 -1.631121 -5.554855
2653 133 1 17.506999 -1.711242 -5.493003
2654 133 1 18.476999 -1.610167 -5.649203
2655 133 1 19.446999 -1.570582 -5.533620
2656 133 1 20.416999 -1.597449 -5.676837
2657 133 1 21.386999 -1.741508 -5.504750
2658 133 1 22.356999 -1.743139 -5.575913
2659 133 1 23.326999 -1.577348 -5.678861
2660 133 1 24.296999 -1.753255 -5.535560
2661 134 1 -8.870879 5.064888 -3.459995
2662 134 1 -7.900879 4.907404 -3.515941
2663 134 1 -6.930879 4.916653 -3.443657
2664 134 1 -5.960879 5.029667 -3.626435
2665 134 1 -4.990879 4.983416 -3.555471
2666 134 1 -4.020879 5.029270 -3.484564
2667 134 1 -3.050879 5.073128 -3.613003
2668 134 1 -2.080879 5.089645 -3.460312
2669 134 1 -1.110879 4.994743 -3.467740
2670 134 1 -0.140879 5.026643 -3.538769
2671 134 1 0.829121 5.007341 -3.441421
2672 134 1 1.799121 5.083281 -3.483661
2673 134 1 2.769121 4.935887 -3.548565
2674 134 1 3.739121 5.073054 -3.460469
2675 134 1 4.709121 5.060474 -3.468183
2676 134 1 5.679121 5.085765 -3.530079
2677 134 1 6.649121 5.076590 -3.507999
2678 134 1 7.619121 4.954576 -3.583589
2679 134 1 8.589121 5.070700 -3.459764
2680 134 1 9.559121 5.092120 -3.625242
2681 135 1 -2.081178 8.859532 8.634605
2682 135 1 -1.111178 8.952992 8.602874
2683 135 1 -0.141178 8.810857 8.642838
2684 135 1 0.828822 8.842347 8.580341
2685 135 1 1.798822 8.897719 8.539544
2686 135 1 2.768822 8.829890 8.693870
2687 135 1 3.738822 8.905721 8.668577
2688 135 1 4.708822 8.937547 8.579075
2689 135 1 5.678822 8.784064 8.563937
2690 135 1 6.648822 8.940866 8.530689
2691 135 1 7.618822 8.937167 8.664806
2692 135 1 8.588822 8.844714 8.517527
2693 135 1 9.558822 8.875023 8.642046
2694 135 1 10.528822 8.948947 8.595429
2695 135 1 11.498822 8.902112 8.619175
2696 135 1 12.468822 8.780117 8.544926
2697 135 1 13.438822 8.886454 8.639317
2698 135 1 14.408822 8.874622 8.529085
2699 135 1 15.378822 8.934468 8.601237
2700 135 1 16.348822 8.780864 8.631755
2701 136 1 5.259801 -1.478844 9.697820
2702 136 1 6.229801 -1.593493 9.821852
2703 136 1 7.199801 -1.541023 9.748813
2704 136 1 8.169801 -1.450248 9.737876
2705 136 1 9.139801 -1.454512 9.810599
2706 136 1 10.109801 -1.501653 9.666102
2707 136 1 11.079801 -1.563584 9.678535
2708 136 1 12.049801 -1.615109 9.729169
2709 136 1 13.019801 -1.479126 9.776557
2710 136 1 13.989801 -1.501301 9.640927
2711 136 1 14.959801 -1.512833 9.652325
2712 136 1 15.929801 -1.467623 9.708442
2713 136 1 16.899801 -1.435245 9.652425
2714 136 1 17.869801 -1.540859 9.726293
2715 136 1 18.839801 -1.525658 9.694772
2716 136 1 19.809801 -1.465188 9.644861
2717 136 1 20.779801 -1.600538 9.786148
2718 136 1 21.749801 -1.480106 9.735413
2719 136 1 22.719801 -1.619336 9.745995
2720 136 1 23.689801 -1.442654 9.773410
2721 137 1 -5.745605 2.942458 -4.417216
2722 137 1 -4.775605 2.930614 -4.446320
2723 137 1 -3.805605 2.856955 -4.324863
2724 137 1 -2.835605 2.875295 -4.310384
2725 137 1 -1.865605 2.831790 -4.365326
2726 137 1 -0.895605 2.784768 -4.344111
2727 137 1 0.074395 2.787663 -4.280346
2728 137 1 1.044395 2.840408 -4.359976
2729 137 1 2.014395 2.857940 -4.371167
2730 137 1 2.984395 2.846380 -4.383344
2731 137 1 3.954395 2.750859 -4.287756
2732 137 1 4.924395 2.913860 -4.391014
2733 137 1 5.894395 2.836802 -4.431908
2734 137 1 6.864395 2.809500 -4.365390
2735 137 1 7.834395 2.815690 -4.458565
2736 137 1 8.804395 2.755621 -4.394513
2737 137 1 9.774395 2.886181 -4.383954
2738 137 1 10.744395 2.746656 -4.459419
2739 137 1 11.714395 2.906266 -4.327066
2740 137 1 12.684395 2.794858 -4.415520
2741 138 1 7.314820 -2.412484 -8.257190
2742 138 1 8.284820 -2.513699 -8.231757
2743 138 1 9.254820 -2.525281 -8.258755
2744 138 1 10.224820 -2.444804 -8.365749
2745 138 1 11.194820 -2.533757 -8.259098
2746 138 1 12.164820 -2.536992 -8.273476
2747 138 1 13.134820 -2.390983 -8.216193
2748 138 1 14.104820 -2.434043 -8.354993
2749 138 1 15.074820 -2.502256 -8.285656
2750 138 1 16.044820 -2.409728 -8.196260
2751 138 1 17.014820 -2.367334 -8.336819
2752 138 1 17.984820 -2.391354 -8.377226
2753 138 1 18.954820 -2.381518 -8.308117
2754 138 1 19.924820 -2.410646 -8.217031
2755 138 1 20.894820 -2.397976 -8.324775
2756 138 1 21.864820 -2.388764 -8.272833
2757 138 1 22.834820 -2.442065 -8.364847
2758 138 1 23.804820 -2.385646 -8.217694
2759 138 1 24.774820 -2.478566 -8.324322
2760 138 1 25.744820 -2.553280 -8.215317
2761 139 1 -0.425629 -1.325145 -6.922389
2762 139 1 0.544371 -1.327987 -7.006924
2763 139 1 1.514371 -1.317754 -6.961558
2764 139 1 2.484371 -1.277455 -6.954165
2765 139 1 3.454371 -1.341459 -6.900366
2766 139 1 4.424371 -1.263028 -6.951116
2767 139 1 5.394371 -1.251435 -6.933608
2768 139 1 6.364371 -1.276932 -6.917604
2769 139 1 7.334371 -1.290733 -6.959343
2770 139 1 8.304371 -1.431748 -6.937691
2771 139 1 9.274371 -1.331767 -6.946212
2772 139 1 10.244371 -1.380251 -6.824158
2773 139 1 11.214371 -1.247696 -6.892083
2774 139 1 12.184371 -1.299042 -6.958196
2775 139 1 13.154371 -1.361304 -6.874472
2776 139 1 14.124371 -1.422287 -6.920409
2777 139 1 15.094371 -1.321369 -6.981688
2778 139 1 16.064371 -1.382863 -6.978043
2779 139 1 17.034371 -1.319651 -6.927927
2780 139 1 18.004371 -1.431747 -6.947449
2781 140 1 -5.955015 2.748628 0.746867
2782 140 1 -4.985015 2.807435 0.822505
2783 140 1 -4.015015 2.684926 0.703568
2784 140 1 -3.045015 2.689297 0.817341
2785 140 1 -2.075015 2.697020 0.843822
2786 140 1 -1.105015 2.689285 0.678043
2787 140 1 -0.135015 2.774889 0.738987
2788 140 1 0.834985 2.683648 0.804728
2789 140 1 1.804985 2.666736 0.826901
2790 140 1 2.774985 2.684073 0.746338
2791 140 1 3.744985 2.642964 0.732595
2792 140 1 4.714985 2.716485 0.727047
2793 140 1 5.684985 2.740961 0.823721
2794 140 1 6.654985 2.644845 0.722109
2795 140 1 7.624985 2.827274 0.866583
2796 140 1 8.594985 2.792439 0.812375
2797 140 1 9.564985 2.757143 0.747961
2798 140 1 10.534985 2.778739 0.779857
2799 140 1 11.504985 2.825693 0.788720
2800 140 1 12.474985 2.724131 0.677280
2801 141 1 -2.387064 -1.956266 -4.769417
2802 141 1 -1.417064 -1.826694 -4.765139
2803 141 1 -0.447064 -1.849799 -4.749612
2804 141 1 0.522936 -1.811242 -4.754418
2805 141 1 1.492936 -1.943364 -4.752681
2806 141 1 2.462936 -1.884704 -4.788818
2807 141 1 3.432936 -1.925477 -4.811248
2808 141 1 4.402936 -1.859073 -4.871057
2809 141 1 5.372936 -1.893654 -4.891126
2810 141 1 6.342936 -1.961233 -4.903995
2811 141 1 7.312936 -1.899740 -4.738172
2812 141 1 8.282936 -1.982609 -4.767909
2813 141 1 9.252936 -1.849613 -4.769045
2814 141 1 10.222936 -1.953684 -4.846499
2815 141 1 11.192936 -1.855587 -4.904480
2816 141 1 12.162936 -1.922874 -4.915086
2817 141 1 13.132936 -1.846190 -4.811070
2818 141 1 14.102936 -1.947791 -4.852830
2819 141 1 15.072936 -1.864996 -4.912704
2820 141 1 16.042936 -1.866812 -4.772883
2821 142 1 3.134887 5.539733 6.675456
2822 142 1 4.104887 5.534547 6.594497
2823 142 1 5.074887 5.609858 6.598257
2824 142 1 6.044887 5.591564 6.683787
2825 142 1 7.014887 5.631518 6.674468
2826 142 1 7.984887 5.681189 6.493982
2827 142 1 8.954887 5.518706 6.593711
2828 142 1 9.924887 5.596080 6.588604
2829 142 1 10.894887 5.667343 6.581147
2830 142 1 11.864887 5.588699 6.516541
2831 142 1 12.834887 5.645912 6.630807
2832 142 1 13.804887 5.636382 6.525030
2833 142 1 14.774887 5.667068 6.609324
2834 142 1 15.744887 5.582556 6.667599
2835 142 1 16.714887 5.579179 6.647074
2836 142 1 17.684887 5.586576 6.686205
2837 142 1 18.654887 5.694991 6.627008
2838 142 1 19.624887 5.692634 6.693733
2839 142 1 20.594887 5.662560 6.644492
2840 142 1 21.564887 5.617939 6.517753
2841 143 1 -9.061827 -8.880611 0.507889
2842 143 1 -8.091827 -8.835578 0.476551
2843 143 1 -7.121827 -8.861841 0.616354
2844 143 1 -6.151827 -8.884433 0.508570
2845 143 1 -5.181827 -8.936367 0.465022
2846 143 1 -4.211827 -8.888382 0.597237
2847 143 1 -3.241827 -8.889333 0.477713
2848 143 1 -2.271827 -8.841637 0.583775
2849 143 1 -1.301827 -8.957602 0.442917
2850 143 1 -0.331827 -8.935477 0.459518
2851 143 1 0.638173 -8.932030 0.481226
2852 143 1 1.608173 -8.831111 0.467783
2853 143 1 2.578173 -8.803498 0.515728
2854 143 1 3.548173 -8.824706 0.528663
2855 143 1 4.518173 -8.830140 0.432807
2856 143 1 5.488173 -8.852940 0.488304
2857 143 1 6.458173 -8.957446 0.556091
2858 143 1 7.428173 -8.849833 0.492914
2859 143 1 8.398173 -8.969097 0.625096
2860 143 1 9.368173 -8.901078 0.471067
2861 144 1 6.351487 -4.243444 6.672473
2862 144 1 7.321487 -4.288037 6.659590
2863 144 1 8.291487 -4.218884 6.671947
2864 144 1 9.261487 -4.129397 6.704905
2865 144 1 10.231487 -4.155450 6.680912
2866 144 1 11.201487 -4.130609 6.709355
2867 144 1 12.171487 -4.106163 6.631653
2868 144 1 13.141487 -4.269868 6.693862
2869 144 1 14.111487 -4.191574 6.534555
2870 144 1 15.081487 -4.258950 6.704120
2871 144 1 16.051487 -4.194722 6.598786
2872 144 1 17.021487 -4.189251 6.532642
2873 144 1 17.991487 -4.160273 6.633727
2874 144 1 18.961487 -4.228147 6.593750
2875 144 1 19.931487 -4.174082 6.534503
2876 144 1 20.901487 -4.142912 6.629761
2877 144 1 21.871487 -4.183042 6.591571
2878 144 1 22.841487 -4.125667 6.609258
2879 144 1 23.811487 -4.286592 6.581987
2880 144 1 24.781487 -4.106155 6.536935
2881 145 1 -5.667351 -7.376496 2.727192
2882 145 1 -4.697351 -7.478892 2.714836
2883 145 1 -3.727351 -7.342250 2.733681
2884 145 1 -2.757351 -7.377537 2.749838
2885 145 1 -1.787351 -7.469716 2.820481
2886 145 1 -0.817351 -7.342555 2.759318
2887 145 1 0.152649 -7.348455 2.681988
2888 145 1 1.122649 -7.373301 2.817859
2889 145 1 2.092649 -7.329364 2.790179
2890 145 1 3.062649 -7.492725 2.807700
2891 145 1 4.032649 -7.368812 2.691559
2892 145 1 5.002649 -7.384603 2.667222
2893 145 1 5.972649 -7.328053 2.818091
2894 145 1 6.942649 -7.408896 2.702126
2895 145 1 7.912649 -7.452347 2.801985
2896 145 1 8.882649 -7.344098 2.670872
2897 145 1 9.852649 -7.383022 2.709312
2898 145 1 10.822649 -7.482104 2.818715
2899 145 1 11.792649 -7.361166 2.718752
2900 145 1 12.762649 -7.420170 2.721028
2901 146 1 9.084510 7.068619 -3.259252
2902 146 1 10.054510 7.082246 -3.100035
2903 146 1 11.024510 7.028585 -3.280797
2904 146 1 11.994510 6.975605 -3.279033
2905 146 1 12.964510 7.059815 -3.190337
2906 146 1 13.934510 7.086633 -3.091340
2907 146 1 14.904510 7.030264 -3.137204
2908 146 1 15.874510 7.066510 -3.197891
2909 146 1 16.844510 6.976468 -3.125869
2910 146 1 17.814510 6.949923 -3.180355
2911 146 1 18.784510 6.982430 -3.203884
2912 146 1 19.754510 7.067754 -3.232441
2913 146 1 20.724510 6.953333 -3.185055
2914 146 1 21.694510 7.021358 -3.163051
2915 146 1 22.664510 7.048949 -3.138266
2916 146 1 23.634510 7.036392 -3.193407
2917 146 1 24.604510 7.104927 -3.166782
2918 146 1 25.574510 7.004327 -3.225880
2919 146 1 26.544510 7.102565 -3.236443
2920 146 1 27.514510 7.045306 -3.190268
2921 147 1 6.183289 -1.792656 8.903637
2922 147 1 7.153289 -1.736380 8.747253
2923 147 1 8.123289 -1.711447 8.885293
2924 147 1 9.093289 -1.850022 8.882530
2925 147 1 10.063289 -1.840488 8.854358
2926 147 1 11.033289 -1.685690 8.862430
2927 147 1 12.003289 -1.801352 8.921690
2928 147 1 12.973289 -1.679210 8.938400
2929 147 1 13.943289 -1.673576 8.909079
2930 147 1 14.913289 -1.771353 8.917403
2931 147 1 15.883289 -1.771494 8.851095
2932 147 1 16.853289 -1.832360 8.907170
2933 147 1 17.823289 -1.736659 8.886403
2934 147 1 18.793289 -1.720238 8.945750
2935 147 1 19.763289 -1.694820 8.936816
2936 147 1 20.733289 -1.740501 8.777346
2937 147 1 21.703289 -1.729318 8.889385
2938 147 1 22.673289 -1.841803 8.934664
2939 147 1 23.643289 -1.753436 8.758623
2940 147 1 24.613289 -1.738119 8.872768
2941 148 1 1.989728 -4.417867 5.966805
2942 148 1 2.959728 -4.390267 5.832265
2943 148 1 3.929728 -4.535766 5.944557
2944 148 1 4.899728 -4.520175 5.950266
2945 148 1 5.869728 -4.500350 5.845988
2946 148 1 6.839728 -4.545524 5.960563
2947 148 1 7.809728 -4.509272 5.947308
2948 148 1 8.779728 -4.438330 5.914654
2949 148 1 9.749728 -4.493129 5.895056
2950 148 1 10.719728 -4.387968 5.869072
2951 148 1 11.689728 -4.393024 5.883624
2952 148 1 12.659728 -4.458061 5.952304
2953 148 1 13.629728 -4.532312 5.854339
2954 148 1 14.599728 -4.471268 5.889827
2955 148 1 15.569728 -4.448281 5.958756
2956 148 1 16.539728 -4.466851 5.887515
2957 148 1 17.509728 -4.424834 5.852525
2958 148 1 18.479728 -4.541715 5.861513
2959 148 1 19.449728 -4.446519 5.789346
2960 148 1 20.419728 -4.518069 5.911919
2961 149 1 -6.366239 -7.193940 -0.527257
2962 149 1 -5.396239 -7.304096 -0.567495
2963 149 1 -4.426239 -7.232683 -0.534158
2964 149 1 -3.456239 -7.277996 -0.567105
2965 149 1 -2.486239 -7.288223 -0.595655
2966 149 1 -1.516239 -7.230578 -0.495876
2967 149 1 -0.546239 -7.197979 -0.618115
2968 149 1 0.423761 -7.291138 -0.552793
2969 149 1 1.393761 -7.342731 -0.445983
2970 149 1 2.363761 -7.281189 -0.592463
2971 149 1 3.333761 -7.270600 -0.612426
2972 149 1 4.303761 -7.333875 -0.526731
2973 149 1 5.273761 -7.334807 -0.455528
2974 149 1 6.243761 -7.223840 -0.447825
2975 149 1 7.213761 -7.285277 -0.484312
2976 149 1 8.183761 -7.367781 -0.539253
2977 149 1 9.153761 -7.348284 -0.530110
2978 149 1 10.123761 -7.352860 -0.484030
2979 149 1 11.093761 -7.202300 -0.564913
2980 149 1 12.063761 -7.246870 -0.451394
2981 150 1 -1.213488 -9.409428 -9.087453
2982 150 1 -0.243488 -9.407040 -9.198292
2983 150 1 0.726512 -9.360095 -9.076618
2984 150 1 1.696512 -9.376203 -9.086224
2985 150 1 2.666512 -9.308648 -9.166512
2986 150 1 3.636512 -9.280824 -9.136532
2987 150 1 4.606512 -9.298756 -9.195281
2988 150 1 5.576512 -9.392325 -9.213988
2989 150 1 6.546512 -9.272178 -9.127469
2990 150 1 7.516512 -9.363324 -9.115347
2991 150 1 8.486512 -9.392338 -9.222856
2992 150 1 9.456512 -9.415707 -9.211751
2993 150 1 10.426512 -9.369382 -9.105492
2994 150 1 11.396512 -9.387300 -9.210827
2995 150 1 12.366512 -9.431139 -9.075720
2996 150 1 13.336512 -9.309499 -9.221864
2997 150 1 14.306512 -9.297689 -9.184244
2998 150 1 15.276512 -9.307530 -9.214782
2999 150 1 16.246512 -9.383136 -9.216836
3000 150 1 17.216512 -9.323058 -9.160069
3001 151 1 8.539540 9.540964 5.006630
3002 151 1 9.509540 9.644578 4.922893
3003 151 1 10.479540 9.657741 5.076067
3004 151 1 11.449540 9.537348 4.961552
3005 151 1 12.419540 9.676659 4.971752
3006 151 1 13.389540 9.661411 4.998572
3007 151 1 14.359540 9.660904 5.018969
3008 151 1 15.329540 9.604397 4.876676
3009 151 1 16.299540 9.554316 4.939813
3010 151 1 17.269540 9.508645 4.974907
3011 151 1 18.239540 9.631598 5.057222
3012 151 1 19.209540 9.501612 4.929571
3013 151 1 20.179540 9.606999 4.985034
3014 151 1 21.149540 9.584522 5.051725
3015 151 1 22.119540 9.548101 4.968835
3016 151 1 23.089540 9.662415 4.879042
3017 151 1 24.059540 9.510369 4.928811
3018 151 1 25.029540 9.626938 4.972336
3019 151 1 25.999540 9.617307 5.039894
3020 151 1 26.969540 9.527718 4.992959
3021 152 1 -4.094675 1.769762 -5.917005
3022 152 1 -3.124675 1.866342 -5.793458
3023 152 1 -2.154675 1.783083 -5.772570
3024 152 1 -1.184675 1.810388 -5.850951
3025 152 1 -0.214675 1.813932 -5.878666
3026 152 1 0.755325 1.792408 -5.903613
3027 152 1 1.725325 1.756588 -5.850970
3028 152 1 2.695325 1.825483 -5.932507
3029 152 1 3.665325 1.845173 -5.789682
3030 152 1 4.635325 1.829561 -5.813518
3031 152 1 5.605325 1.725019 -5.930984
3032 152 1 6.575325 1.730169 -5.911703
3033 152 1 7.545325 1.871792 -5.755053
3034 152 1 8.515325 1.713665 -5.776607
3035 152 1 9.485325 1.747722 -5.932751
3036 152 1 10.455325 1.680938 -5.804890
3037 152 1 11.425325 1.748079 -5.869404
3038 152 1 12.395325 1.876131 -5.849146
3039 152 1 13.365325 1.764567 -5.782848
3040 152 1 14.335325 1.728283 -5.772935
3041 153 1 -1.486510 -5.619198 8.688047
3042 153 1 -0.516510 -5.590828 8.772626
3043 153 1 0.453490 -5.477183 8.817652
3044 153 1 1.423490 -5.564778 8.669048
3045 153 1 2.393490 -5.629097 8.639263
3046 153 1 3.363490 -5.554628 8.750707
3047 153 1 4.333490 -5.503530 8.647380
3048 153 1 5.303490 -5.578898 8.818699
3049 153 1 6.273490 -5.661173 8.717389
3050 153 1 7.243490 -5.553496 8.740005
3051 153 1 8.213490 -5.476030 8.695227
3052 153 1 9.183490 -5.642333 8.693098
3053 153 1 10.153490 -5.561483 8.705143
3054 153 1 11.123490 -5.624317 8.751976
3055 153 1 12.093490 -5.550111 8.704891
3056 153 1 13.063490 -5.582837 8.816065
3057 153 1 14.033490 -5.586216 8.720796
3058 153 1 15.003490 -5.474797 8.794840
3059 153 1 15.973490 -5.548269 8.754201
3060 153 1 16.943490 -5.493164 8.682676
3061 154 1 -5.175678 6.348600 -0.622281
3062 154 1 -4.205678 6.249839 -0.761750
3063 154 1 -3.235678 6.282034 -0.634769
3064 154 1 -2.265678 6.270582 -0.777663
3065 154 1 -1.295678 6.225962 -0.669034
3066 154 1 -0.325678 6.227654 -0.689191
3067 154 1 0.644322 6.264856 -0.811180
3068 154 1 1.614322 6.228143 -0.787851
3069 154 1 2.584322 6.357620 -0.739730
3070 154 1 3.554322 6.305650 -0.681675
3071 154 1 4.524322 6.298627 -0.724574
3072 154 1 5.494322 6.218853 -0.710187
3073 154 1 6.464322 6.359239 -0.644169
3074 154 1 7.434322 6.189246 -0.681273
3075 154 1 8.404322 6.296456 -0.766481
3076 154 1 9.374322 6.326118 -0.754616
3077 154 1 10.344322 6.270262 -0.717247
3078 154 1 11.314322 6.235315 -0.801993
3079 154 1 12.284322 6.324132 -0.678104
3080 154 1 13.254322 6.284204 -0.806157
3081 155 1 0.230246 -6.320619 4.757790
3082 155 1 1.200246 -6.268081 4.814282
3083 155 1 2.170246 -6.257487 4.769027
3084 155 1 3.140246 -6.262633 4.785978
3085 155 1 4.110246 -6.286894 4.706413
3086 155 1 5.080246 -6.371073 4.786470
3087 155 1 6.050246 -6.335590 4.747411
3088 155 1 7.020246 -6.293437 4.742261
3089 155 1 7.990246 -6.193972 4.817705
3090 155 1 8.960246 -6.332987 4.732266
3091 155 1 9.930246 -6.247665 4.822038
3092 155 1 10.900246 -6.309903 4.686711
3093 155 1 11.870246 -6.273349 4.679039
3094 155 1 12.840246 -6.273772 4.688980
3095 155 1 13.810246 -6.290418 4.761279
3096 155 1 14.780246 -6.356729 4.836944
3097 155 1 15.750246 -6.256298 4.858079
3098 155 1 16.720246 -6.383256 4.685313
3099 155 1 17.690246 -6.299551 4.787507
3100 155 1 18.660246 -6.380171 4.764875
3101 156 1 -9.575026 -5.990933 10.020960
3102 156 1 -8.605026 -6.141306 9.972671
3103 156 1 -7.635026 -6.048983 10.009523
3104 156 1 -6.665026 -6.148474 10.063860
3105 156 1 -5.695026 -6.025047 10.092122
3106 156 1 -4.725026 -6.147426 10.032944
3107 156 1 -3.755026 -6.125077 9.914800
3108 156 1 -2.785026 -6.024240 10.022248
3109 156 1 -1.815026 -6.051533 10.042213
3110 156 1 -0.845026 -6.029831 9.951198
3111 156 1 0.124974 -5.999497 10.083189
3112 156 1 1.094974 -6.116928 9.962539
3113 156 1 2.064974 -6.151352 9.997803
3114 156 1 3.034974 -6.113913 9.975367
3115 156 1 4.004974 -6.013888 9.952351
3116 156 1 4.974974 -6.021253 10.053311
3117 156 1 5.944974 -6.008755 10.057917
3118 156 1 6.914974 -6.117719 9.896732
3119 156 1 7.884974 -6.092697 9.933050
3120 156 1 8.854974 -6.094420 9.934799
3121 157 1 4.880507 -8.883738 -5.575301
3122 157 1 5.850507 -8.981168 -5.643528
3123 157 1 6.820507 -8.903876 -5.530315
3124 157 1 7.790507 -9.029109 -5.642958
3125 157 1 8.760507 -8.904025 -5.469993
3126 157 1 9.730507 -9.015197 -5.584985
3127 157 1 10.700507 -8.969213 -5.556999
3128 157 1 11.670507 -8.985615 -5.473104
3129 157 1 12.640507 -8.950259 -5.647754
3130 157 1 13.610507 -8.897090 -5.459350
3131 157 1 14.580507 -8.973801 -5.615663
3132 157 1 15.550507 -8.899525 -5.494854
3133 157 1 16.520507 -8.891338 -5.564559
3134 157 1 17.490507 -8.953696 -5.536181
3135 157 1 18.460507 -8.975331 -5.495929
3136 157 1 19.430507 -9.034840 -5.468332
3137 157 1 20.400507 -9.044997 -5.514322
3138 157 1 21.370507 -9.073661 -5.637257
3139 157 1 22.340507 -9.033279 -5.516775
3140 157 1 23.310507 -8.948453 -5.586659
3141 158 1 -2.229555 2.606577 -0.162715
3142 158 1 -1.259555 2.716429 0.008335
3143 158 1 -0.289555 2.610636 0.030293
3144 158 1 0.680445 2.745088 0.008928
3145 158 1 1.650445 2.768682 -0.136280
3146 158 1 2.620445 2.756579 -0.100080
3147 158 1 3.590445 2.732059 -0.044340
3148 158 1 4.560445 2.582508 -0.037445
3149 158 1 5.530445 2.750590 -0.094358
3150 158 1 6.500445 2.630439 -0.039681
3151 158 1 7.470445 2.713878 -0.004272
3152 158 1 8.440445 2.620762 -0.070537
3153 158 1 9.410445 2.626745 0.009940
3154 158 1 10.380445 2.588850 -0.110858
3155 158 1 11.350445 2.624300 -0.161292
3156 158 1 12.320445 2.751962 -0.090968
3157 158 1 13.290445 2.621131 -0.097196
3158 158 1 14.260445 2.732002 -0.005829
3159 158 1 15.230445 2.678935 0.000964
3160 158 1 16.200445 2.731135 -0.082109
3161 159 1 -4.700826 -6.123081 -2.171759
3162 159 1 -3.730826 -6.090363 -2.038384
3163 159 1 -2.760826 -6.059944 -2.051464
3164 159 1 -1.790826 -6.077603 -2.014969
3165 159 1 -0.820826 -6.135243 -2.049779
3166 159 1 0.149174 -6.177136 -2.169205
3167 159 1 1.119174 -6.208473 -2.177655
3168 159 1 2.089174 -6.250033 -2.020437
3169 159 1 3.059174 -6.216033 -2.191435
3170 159 1 4.029174 -6.104985 -2.140208
3171 159 1 4.999174 -6.143228 -2.165090
3172 159 1 5.969174 -6.137496 -2.127261
3173 159 1 6.939174 -6.089637 -2.108323
3174 159 1 7.909174 -6.085895 -2.019781
3175 159 1 8.879174 -6.084901 -2.116924
3176 159 1 9.849174 -6.118500 -2.109303
3177 159 1 10.819174 -6.124415 -2.087029
3178 159 1 11.789174 -6.194406 -2.125999
3179 159 1 12.759174 -6.058121 -2.195424
3180 159 1 13.729174 -6.156267 -2.145654
3181 160 1 -8.005011 2.512209 -8.774782
3182 160 1 -7.035011 2.504247 -8.793646
3183 160 1 -6.065011 2.443401 -8.743618
3184 160 1 -5.095011 2.566687 -8.749821
3185 160 1 -4.125011 2.516909 -8.775905
3186 160 1 -3.155011 2.582671 -8.664400
3187 160 1 -2.185011 2.435719 -8.816353
3188 160 1 -1.215011 2.566603 -8.769483
3189 160 1 -0.245011 2.551224 -8.649478
3190 160 1 0.724989 2.500636 -8.660501
3191 160 1 1.694989 2.461712 -8.670237
3192 160 1 2.664989 2.444183 -8.674005
3193 160 1 3.634989 2.468442 -8.828345
3194 160 1 4.604989 2.431461 -8.727772
3195 160 1 5.574989 2.607068 -8.681899
3196 160 1 6.544989 2.558145 -8.790289
3197 160 1 7.514989 2.492550 -8.755664
3198 160 1 8.484989 2.609667 -8.757564
3199 160 1 9.454989 2.597420 -8.725736
3200 160 1 10.424989 2.511820 -8.809116
3201 161 1 1.887616 -8.256538 -2.003474
3202 161 1 2.857616 -8.235742 -1.952830
3203 161 1 3.827616 -8.245274 -1.989540
3204 161 1 4.797616 -8.271526 -1.954646
3205 161 1 5.767616 -8.385711 -1.961618
3206 161 1 6.737616 -8.362749 -2.047806
3207 161 1 7.707616 -8.271331 -2.024131
3208 161 1 8.677616 -8.391458 -1.911410
3209 161 1 9.647616 -8.310140 -1.977523
3210 161 1 10.617616 -8.223876 -2.011373
3211 161 1 11.587616 -8.307593 -1.968947
3212 161 1 12.557616 -8.399261 -1.922538
3213 161 1 13.527616 -8.206716 -1.956762
3214 161 1 14.497616 -8.334486 -1.953427
3215 161 1 15.467616 -8.371891 -2.042941
3216 161 1 16.437616 -8.262138 -1.971761
3217 161 1 17.407616 -8.254633 -1.938533
3218 161 1 18.377616 -8.315639 -1.950936
3219 161 1 19.347616 -8.249249 -1.962460
3220 161 1 20.317616 -8.302370 -2.052652
3221 162 1 3.611446 1.484317 2.746213
3222 162 1 4.581446 1.451249 2.751182
3223 162 1 5.551446 1.531782 2.855508
3224 162 1 6.521446 1.463156 2.808046
3225 162 1 7.491446 1.507171 2.846443
3226 162 1 8.461446 1.423127 2.827266
3227 162 1 9.431446 1.592569 2.863053
3228 162 1 10.401446 1.524474 2.889526
3229 162 1 11.371446 1.497827 2.892822
3230 162 1 12.341446 1.452703 2.846312
3231 162 1 13.311446 1.486191 2.877417
3232 162 1 14.281446 1.574430 2.876444
3233 162 1 15.251446 1.604674 2.908885
3234 162 1 16.221446 1.579490 2.749936
3235 162 1 17.191446 1.596374 2.714741
3236 162 1 18.161446 1.433084 2.807993
3237 162 1 19.131446 1.474008 2.867002
3238 162 1 20.101446 1.428229 2.819262
3239 162 1 21.071446 1.496142 2.761715
3240 162 1 22.041446 1.611003 2.900835
3241 163 1 2.211062 0.120236 1.786105
3242 163 1 3.181062 -0.075270 1.798313
3243 163 1 4.151062 0.021536 1.676762
3244 163 1 5.121062 0.034595 1.730987
3245 163 1 6.091062 -0.010424 1.692302
3246 163 1 7.061062 0.102317 1.820473
3247 163 1 8.031062 0.055987 1.699886
3248 163 1 9.001062 0.077543 1.846068
3249 163 1 9.971062 0.031493 1.828115
3250 163 1 10.941062 0.058218 1.856415
3251 163 1 11.911062 -0.062659 1.742178
3252 163 1 12.881062 0.070543 1.874730
3253 163 1 13.851062 0.034703 1.803850
3254 163 1 14.821062 -0.045027 1.788817
3255 163 1 15.791062 -0.060290 1.680293
3256 163 1 16.761062 -0.008344 1.712855
3257 163 1 17.731062 0.096238 1.820060
3258 163 1 18.701062 0.043340 1.825587
3259 163 1 19.671062 -0.033094 1.734231
3260 163 1 20.641062 -0.054177 1.731199
3261 164 1 2.034104 -2.405277 -8.014057
3262 164 1 3.004104 -2.347731 -7.825750
3263 164 1 3.974104 -2.424688 -8.023808
3264 164 1 4.944104 -2.527103 -7.852922
3265 164 1 5.914104 -2.442532 -7.931242
3266 164 1 6.884104 -2.383453 -7.921150
3267 164 1 7.854104 -2.512761 -8.008792
3268 164 1 8.824104 -2.480629 -7.986615
3269 164 1 9.794104 -2.414577 -7.855623
3270 164 1 10.764104 -2.479953 -8.018639
3271 164 1 11.734104 -2.401504 -7.940737
3272 164 1 12.704104 -2.404270 -7.851144
3273 164 1 13.674104 -2.373035 -7.879762
3274 164 1 14.644104 -2.392642 -7.837809
3275 164 1 15.614104 -2.373814 -7.972469
3276 164 1 16.584104 -2.511373 -7.913566
3277 164 1 17.554104 -2.391507 -7.917588
3278 164 1 18.524104 -2.426862 -7.889764
3279 164 1 19.494104 -2.370133 -8.018853
3280 164 1 20.464104 -2.533139 -7.951310
3281 165 1 -7.811268 -1.665654 -5.863204
3282 165 1 -6.841268 -1.713864 -5.850921
3283 165 1 -5.871268 -1.742781 -5.913462
3284 165 1 -4.901268 -1.771679 -6.022774
3285 165 1 -3.931268 -1.708157 -5.933991
3286 165 1 -2.961268 -1.778516 -5.971722
3287 165 1 -1.991268 -1.672912 -5.868525
3288 165 1 -1.021268 -1.704777 -6.039964
3289 165 1 -0.051268 -1.765952 -5.883127
3290 165 1 0.918732 -1.813007 -5.908432
3291 165 1 1.888732 -1.772745 -5.871972
3292 165 1 2.858732 -1.699712 -6.044497
3293 165 1 3.828732 -1.769322 -5.937572
3294 165 1 4.798732 -1.614819 -5.925380
3295 165 1 5.768732 -1.694985 -5.992308
3296 165 1 6.738732 -1.719648 -5.881692
3297 165 1 7.708732 -1.625241 -5.972493
3298 165 1 8.678732 -1.751244 -5.891341
3299 165 1 9.648732 -1.645311 -5.847278
3300 165 1 10.618732 -1.772366 -6.035616
3301 166 1 4.477779 -0.175924 -6.160690
3302 166 1 5.447779 -0.143800 -6.227067
3303 166 1 6.417779 -0.282515 -6.259751
3304 166 1 7.387779 -0.105361 -6.112734
3305 166 1 8.357779 -0.161544 -6.091265
3306 166 1 9.327779 -0.207749 -6.075790
3307 166 1 10.297779 -0.168295 -6.100450
3308 166 1 11.267779 -0.239889 -6.199627
3309 166 1 12.237779 -0.278881 -6.207427
3310 166 1 13.207779 -0.286988 -6.076806
3311 166 1 14.177779 -0.158692 -6.075552
3312 166 1 15.147779 -0.136405 -6.161840
3313 166 1 16.117779 -0.260727 -6.131611
3314 166 1 17.087779 -0.157888 -6.160635
3315 166 1 18.057779 -0.259435 -6.193223
3316 166 1 19.027779 -0.113946 -6.074119
3317 166 1 19.997779 -0.217788 -6.254443
3318 166 1 20.967779 -0.296122 -6.102000
3319 166 1 21.937779 -0.190722 -6.213043
3320 166 1 22.907779 -0.165349 -6.162175
3321 167 1 0.602354 7.958746 3.734426
3322 167 1 1.572354 7.841447 3.775046
3323 167 1 2.542354 7.806486 3.698957
3324 167 1 3.512354 7.987237 3.640257
3325 167 1 4.482354 7.958335 3.698082
3326 167 1 5.452354 7.910008 3.684417
3327 167 1 6.422354 7.849799 3.682146
3328 167 1 7.392354 7.794242 3.708852
3329 167 1 8.362354 7.972996 3.753604
3330 167 1 9.332354 7.908306 3.740312
3331 167 1 10.302354 7.952233 3.628296
3332 167 1 11.272354 7.795609 3.695113
3333 167 1 12.242354 7.837368 3.709822
3334 167 1 13.212354 7.875925 3.792355
3335 167 1 14.182354 7.928630 3.722584
3336 167 1 15.152354 7.835058 3.684064
3337 167 1 16.122354 7.907427 3.765464
3338 167 1 17.092354 7.883394 3.697684
3339 167 1 18.062354 7.989009 3.743132
3340 167 1 19.032354 7.895578 3.764259
3341 168 1 -1.111664 5.429275 -8.320773
3342 168 1 -0.141664 5.512585 -8.222351
3343 168 1 0.828336 5.525279 -8.254352
3344 168 1 1.798336 5.418245 -8.245085
3345 168 1 2.768336 5.495738 -8.190417
3346 168 1 3.738336 5.501763 -8.319639
3347 168 1 4.708336 5.348554 -8.189787
3348 168 1 5.678336 5.407889 -8.219975
3349 168 1 6.648336 5.421149 -8.301417
3350 168 1 7.618336 5.416771 -8.285992
3351 168 1 8.588336 5.450355 -8.260666
3352 168 1 9.558336 5.334665 -8.361545
3353 168 1 10.528336 5.486270 -8.212408
3354 168 1 11.498336 5.360807 -8.245358
3355 168 1 12.468336 5.422397 -8.336944
3356 168 1 13.438336 5.379769 -8.282229
3357 168 1 14.408336 5.416374 -8.352201
3358 168 1 15.378336 5.532087 -8.187754
3359 168 1 16.348336 5.445499 -8.321322
3360 168 1 17.318336 5.380737 -8.294004
3361 169 1 -6.086004 4.899791 9.530294
3362 169 1 -5.116004 4.795481 9.543116
3363 169 1 -4.146004 4.802509 9.532448
3364 169 1 -3.176004 4.926835 9.466740
3365 169 1 -2.206004 4.804747 9.557379
3366 169 1 -1.236004 4.826577 9.576751
3367 169 1 -0.266004 4.815093 9.439497
3368 169 1 0.703996 4.830156 9.568803
3369 169 1 1.673996 4.792314 9.471145
3370 169 1 2.643996 4.752466 9.549160
3371 169 1 3.613996 4.931498 9.459462
3372 169 1 4.583996 4.785184 9.514621
3373 169 1 5.553996 4.820943 9.503850
3374 169 1 6.523996 4.847077 9.499773
3375 169 1 7.493996 4.853641 9.571859
3376 169 1 8.463996 4.819360 9.500051
3377 169 1 9.433996 4.924218 9.547281
3378 169 1 10.403996 4.812670 9.591913
3379 169 1 11.373996 4.880000 9.589873
3380 169 1 12.343996 4.795156 9.608024
3381 170 1 9.903256 1.965364 -6.094398
3382 170 1 10.873256 1.969698 -5.997736
3383 170 1 11.843256 1.969772 -6.120046
3384 170 1 12.813256 1.927248 -6.002380
3385 170 1 13.783256 2.043304 -6.028377
3386 170 1 14.753256 1.961267 -6.093302
3387 170 1 15.723256 1.979663 -6.015802
3388 170 1 16.693256 1.962107 -6.094400
3389 170 1 17.663256 1.891099 -6.008682
3390 170 1 18.633256 1.954058 -6.154968
3391 170 1 19.603256 1.985042 -6.119769
3392 170 1 20.573256 2.080531 -6.134822
3393 170 1 21.543256 2.069077 -6.120129
3394 170 1 22.513256 2.068328 -6.089642
3395 170 1 23.483256 2.057418 -5.986004
3396 170 1 24.453256 2.018236 -6.133826
3397 170 1 25.423256 2.054966 -5.985481
3398 170 1 26.393256 2.028938 -6.012939
3399 170 1 27.363256 2.005708 -6.038911
3400 170 1 28.333256 1.899645 -6.071974
3401 171 1 -8.546204 -0.047872 -8.322867
3402 171 1 -7.576204 0.071884 -8.378139
3403 171 1 -6.606204 0.072864 -8.436971
3404 171 1 -5.636204 -0.046411 -8.459857
3405 171 1 -4.666204 0.021568 -8.430920
3406 171 1 -3.696204 0.063288 -8.462039
3407 171 1 -2.726204 0.041645 -8.371323
3408 171 1 -1.756204 -0.044528 -8.336591
3409 171 1 -0.786204 0.084983 -8.369735
3410 171 1 0.183796 -0.075825 -8.360523
3411 171 1 1.153796 -0.036459 -8.411272
3412 171 1 2.123796 0.001600 -8.331257
3413 171 1 3.093796 0.060434 -8.378209
3414 171 1 4.063796 -0.018735 -8.494633
3415 171 1 5.033796 0.010840 -8.463158
3416 171 1 6.003796 -0.054196 -8.442549
3417 171 1 6.973796 -0.026230 -8.472001
3418 171 1 7.943796 0.027912 -8.366001
3419 171 1 8.913796 0.032470 -8.327784
3420 171 1 9.883796 0.029780 -8.451902
3421 172 1 4.297169 6.124047 9.821945
3422 172 1 5.267169 6.178176 9.852232
3423 172 1 6.237169 6.176839 9.677699
3424 172 1 7.207169 6.105698 9.699259
3425 172 1 8.177169 6.153099 9.702883
3426 172 1 9.147169 6.232055 9.768097
3427 172 1 10.117169 6.209303 9.769566
3428 172 1 11.087169 6.220277 9.667893
3429 172 1 12.057169 6.135323 9.751945
3430 172 1 13.027169 6.182870 9.780976
3431 172 1 13.997169 6.114586 9.851264
3432 172 1 14.967169 6.184273 9.809125
3433 172 1 15.937169 6.270032 9.852123
3434 172 1 16.907169 6.145332 9.679886
3435 172 1 17.877169 6.231242 9.849540
3436 172 1 18.847169 6.234788 9.848020
3437 172 1 19.817169 6.223778 9.808703
3438 172 1 20.787169 6.104064 9.803199
3439 172 1 21.757169 6.115496 9.721356
3440 172 1 22.727169 6.251325 9.784359
3441 173 1 9.181652 2.778959 -1.496400
3442 173 1 10.151652 2.740818 -1.492556
3443 173 1 11.121652 2.888854 -1.493976
3444 173 1 12.091652 2.730639 -1.463458
3445 173 1 13.061652 2.752458 -1.596754
3446 173 1 14.031652 2.876464 -1.535244
3447 173 1 15.001652 2.786738 -1.460086
3448 173 1 15.971652 2.720419 -1.554128
3449 173 1 16.941652 2.823975 -1.461448
3450 173 1 17.911652 2.747493 -1.522782
3451 173 1 18.881652 2.765763 -1.480154
3452 173 1 19.851652 2.855591 -1.623117
3453 173 1 20.821652 2.815528 -1.502509
3454 173 1 21.791652 2.816510 -1.614107
3455 173 1 22.761652 2.849707 -1.560099
3456 173 1 23.731652 2.799810 -1.543623
3457 173 1 24.701652 2.859916 -1.478384
3458 173 1 25.671652 2.761296 -1.629034
3459 173 1 26.641652 2.743925 -1.476736
3460 173 1 27.611652 2.848192 -1.647536
3461 174 1 -8.638036 -4.120956 2.474829
3462 174 1 -7.668036 -4.300306 2.496767
3463 174 1 -6.698036 -4.201676 2.430277
3464 174 1 -5.728036 -4.312543 2.541506
3465 174 1 -4.758036 -4.247008 2.496837
3466 174 1 -3.788036 -4.301515 2.451993
3467 174 1 -2.818036 -4.144275 2.383632
3468 174 1 -1.848036 -4.118638 2.470998
3469 174 1 -0.878036 -4.157148 2.435684
3470 174 1 0.091964 -4.281995 2.425589
3471 174 1 1.061964 -4.123850 2.391850
3472 174 1 2.031964 -4.262362 2.563432
3473 174 1 3.001964 -4.200271 2.540438
3474 174 1 3.971964 -4.241737 2.461718
3475 174 1 4.941964 -4.273547 2.490579
3476 174 1 5.911964 -4.200242 2.428169
3477 174 1 6.881964 -4.281359 2.439703
3478 174 1 7.851964 -4.128197 2.399605
3479 174 1 8.821964 -4.308102 2.513396
3480 174 1 9.791964 -4.249985 2.432833
3481 175 1 -7.028923 3.549768 -0.879773
3482 175 1 -6.058923 3.658585 -0.832462
3483 175 1 -5.088923 3.493476 -0.800581
3484 175 1 -4.118923 3.460671 -0.943311
3485 175 1 -3.148923 3.593184 -0.892957
3486 175 1 -2.178923 3.646709 -0.885046
3487 175 1 -1.208923 3.598876 -0.813324
3488 175 1 -0.238923 3.589499 -0.896553
3489 175 1 0.731077 3.480619 -0.804236
3490 175 1 1.701077 3.601433 -0.908908
3491 175 1 2.671077 3.611381 -0.825147
3492 175 1 3.641077 3.629590 -0.828332
3493 175 1 4.611077 3.560330 -0.810931
3494 175 1 5.581077 3.593148 -0.865276
3495 175 1 6.551077 3.479995 -0.969129
3496 175 1 7.521077 3.554596 -0.948240
3497 175 1 8.491077 3.536526 -0.890616
3498 175 1 9.461077 3.572729 -0.864186
3499 175 1 10.431077 3.517788 -0.920178
3500 175 1 11.401077 3.467255 -0.982019
3501 176 1 5.602922 1.672484 3.646513
3502 176 1 6.572922 1.669899 3.634615
3503 176 1 7.542922 1.586116 3.515606
3504 176 1 8.512922 1.719614 3.678761
3505 176 1 9.482922 1.725594 3.510073
3506 176 1 10.452922 1.667617 3.606450
3507 176 1 11.422922 1.642136 3.621152
3508 176 1 12.392922 1.641153 3.499221
3509 176 1 13.362922 1.592496 3.579811
3510 176 1 14.332922 1.599606 3.523771
3511 176 1 15.302922 1.640738 3.505182
3512 176 1 16.272922 1.632315 3.625259
3513 176 1 17.242922 1.641148 3.599882
3514 176 1 18.212922 1.672644 3.522313
3515 176 1 19.182922 1.721603 3.576888
3516 176 1 20.152922 1.618859 3.571300
3517 176 1 21.122922 1.714492 3.556805
3518 176 1 22.092922 1.567610 3.544577
3519 176 1 23.062922 1.678162 3.491578
3520 176 1 24.032922 1.735512 3.490239
3521 177 1 -4.088960 1.069464 -3.852517
3522 177 1 -3.118960 0.914941 -3.800667
3523 177 1 -2.148960 0.995977 -3.935910
3524 177 1 -1.178960 1.052275 -3.811298
3525 177 1 -0.208960 1.095215 -3.916624
3526 177 1 0.761040 1.053748 -3.975728
3527 177 1 1.731040 1.005683 -3.855513
3528 177 1 2.701040 1.055145 -3.795567
3529 177 1 3.671040 0.925702 -3.823474
3530 177 1 4.641040 1.084001 -3.957253
3531 177 1 5.611040 1.089752 -3.861123
3532 177 1 6.581040 1.044060 -3.921067
3533 177 1 7.551040 1.089030 -3.958228
3534 177 1 8.521040 0.997889 -3.887015
3535 177 1 9.491040 0.898765 -3.924281
3536 177 1 10.461040 1.018502 -3.803954
3537 177 1 11.431040 0.994841 -3.935659
3538 177 1 12.401040 0.970303 -3.790893
3539 177 1 13.371040 1.051817 -3.921784
3540 177 1 14.341040 0.956074 -3.946271
3541 178 1 -9.926359 6.529849 5.769006
3542 178 1 -8.956359 6.567621 5.636274
3543 178 1 -7.986359 6.448596 5.607005
3544 178 1 -7.016359 6.487549 5.760544
3545 178 1 -6.046359 6.574564 5.701539
3546 178 1 -5.076359 6.605020 5.602535
3547 178 1 -4.106359 6.567999 5.650128
3548 178 1 -3.136359 6.573524 5.741301
3549 178 1 -2.166359 6.560724 5.742539
3550 178 1 -1.196359 6.545326 5.669536
3551 178 1 -0.226359 6.565335 5.654263
3552 178 1 0.743641 6.488323 5.682691
3553 178 1 1.713641 6.486132 5.615816
3554 178 1 2.683641 6.613370 5.729071
3555 178 1 3.653641 6.490014 5.686670
3556 178 1 4.623641 6.503807 5.759328
3557 178 1 5.593641 6.450298 5.589369
3558 178 1 6.563641 6.533432 5.729263
3559 178 1 7.533641 6.480809 5.754205
3560 178 1 8.503641 6.629576 5.774063
3561 179 1 8.478439 8.290180 9.629163
3562 179 1 9.448439 8.326601 9.637043
3563 179 1 10.418439 8.328265 9.544835
3564 179 1 11.388439 8.352070 9.569837
3565 179 1 12.358439 8.367309 9.678267
3566 179 1 13.328439 8.347277 9.596824
3567 179 1 14.298439 8.211995 9.707878
3568 179 1 15.268439 8.373488 9.700025
3569 179 1 16.238439 8.326967 9.567479
3570 179 1 17.208439 8.290004 9.657632
3571 179 1 18.178439 8.344731 9.627729
3572 179 1 19.148439 8.380507 9.652938
3573 179 1 20.118439 8.294128 9.593669
3574 179 1 21.088439 8.270332 9.589386
3575 179 1 22.058439 8.334760 9.604930
3576 179 1 23.028439 8.253810 9.717998
3577 179 1 23.998439 8.259324 9.600303
3578 179 1 24.968439 8.359122 9.580775
3579 179 1 25.938439 8.240362 9.607049
3580 179 1 26.908439 8.383276 9.671333
3581 180 1 -9.666831 -8.053381 -7.930434
3582 180 1 -8.696831 -8.139362 -7.925953
3583 180 1 -7.726831 -8.106646 -7.860782
3584 180 1 -6.756831 -8.043199 -7.818040
3585 180 1 -5.786831 -8.042612 -7.874075
3586 180 1 -4.816831 -8.164970 -7.761887
3587 180 1 -3.846831 -8.093802 -7.738509
3588 180 1 -2.876831 -8.088623 -7.829745
3589 180 1 -1.906831 -8.073560 -7.743562
3590 180 1 -0.936831 -8.111149 -7.873655
3591 180 1 0.033169 -8.049576 -7.743663
3592 180 1 1.003169 -8.106792 -7.757158
3593 180 1 1.973169 -8.128713 -7.870306
3594 180 1 2.943169 -8.024488 -7.863873
3595 180 1 3.913169 -8.003561 -7.933100
3596 180 1 4.883169 -7.997678 -7.871791
3597 180 1 5.853169 -8.011867 -7.736394
3598 180 1 6.823169 -8.051452 -7.857924
3599 180 1 7.793169 -8.117532 -7.760353
3600 180 1 8.763169 -7.981442 -7.861772
3601 181 1 -6.811375 3.862952 4.694688
3602 181 1 -5.841375 3.928550 4.624197
3603 181 1 -4.871375 3.931651 4.603796
3604 181 1 -3.901375 3.987960 4.725858
3605 181 1 -2.931375 3.846963 4.719158
3606 181 1 -1.961375 3.821647 4.603126
3607 181 1 -0.991375 3.881575 4.616731
3608 181 1 -0.021375 3.869968 4.728385
3609 181 1 0.948625 3.966735 4.733489
3610 181 1 1.918625 3.838849 4.675779
3611 181 1 2.888625 3.872473 4.726424
3612 181 1 3.858625 3.836070 4.675559
3613 181 1 4.828625 4.012760 4.594113
3614 181 1 5.798625 3.879505 4.633985
3615 181 1 6.768625 3.856247 4.728387
3616 181 1 7.738625 3.929584 4.716123
3617 181 1 8.708625 3.917834 4.650934
3618 181 1 9.678625 3.822537 4.568047
3619 181 1 10.648625 3.909859 4.737867
3620 181 1 11.618625 3.989884 4.620455
3621 182 1 0.427944 9.992856 -0.650636
3622 182 1 1.397944 9.836401 -0.523129
3623 182 1 2.367944 9.909457 -0.704904
3624 182 1 3.337944 9.986145 -0.700851
3625 182 1 4.307944 9.915445 -0.596532
3626 182 1 5.277944 9.965418 -0.625170
3627 182 1 6.247944 9.959011 -0.556649
3628 182 1 7.217944 9.875782 -0.683003
3629 182 1 8.187944 9.842229 -0.581508
3630 182 1 9.157944 9.928375 -0.618639
3631 182 1 10.127944 9.958052 -0.572092
3632 182 1 11.097944 9.959161 -0.545058
3633 182 1 12.067944 9.934262 -0.706482
3634 182 1 13.037944 9.898358 -0.629433
3635 182 1 14.007944 9.892560 -0.527734
3636 182 1 14.977944 9.880466 -0.654926
3637 182 1 15.947944 9.986199 -0.624859
3638 182 1 16.917944 9.833070 -0.665247
3639 182 1 17.887944 9.919995 -0.533775
3640 182 1 18.857944 9.857914 -0.686636
3641 183 1 -7.323478 -1.946465 -0.742739
3642 183 1 -6.353478 -2.101783 -0.653476
3643 183 1 -5.383478 -2.079079 -0.730558
3644 183 1 -4.413478 -2.065295 -0.742994
3645 183 1 -3.443478 -2.079544 -0.589708
3646 183 1 -2.473478 -2.071335 -0.660554
3647 183 1 -1.503478 -2.010858 -0.618519
3648 183 1 -0.533478 -2.012786 -0.687912
3649 183 1 0.436522 -2.035734 -0.607821
3650 183 1 1.406522 -2.020294 -0.679090
3651 183 1 2.376522 -2.036518 -0.648931
3652 183 1 3.346522 -2.068564 -0.742575
3653 183 1 4.316522 -2.065953 -0.752114
3654 183 1 5.286522 -2.080005 -0.619076
3655 183 1 6.256522 -1.941488 -0.681174
3656 183 1 7.226522 -2.072228 -0.630424
3657 183 1 8.196522 -2.042558 -0.679560
3658 183 1 9.166522 -1.946379 -0.760919
3659 183 1 10.136522 -2.002159 -0.671015
3660 183 1 11.106522 -1.929313 -0.757651
3661 184 1 0.745563 3.216685 3.825003
3662 184 1 1.715563 3.233577 3.880519
3663 184 1 2.685563 3.321425 3.898225
3664 184 1 3.655563 3.211310 3.799127
3665 184 1 4.625563 3.297213 3.765822
3666 184 1 5.595563 3.233855 3.913977
3667 184 1 6.565563 3.247994 3.887129
3668 184 1 7.535563 3.345742 3.882729
3669 184 1 8.505563 3.353383 3.825716
3670 184 1 9.475563 3.200647 3.847978
3671 184 1 10.445563 3.293777 3.947139
3672 184 1 11.415563 3.255779 3.937239
3673 184 1 12.385563 3.187411 3.839928
3674 184 1 13.355563 3.251020 3.894071
3675 184 1 14.325563 3.288377 3.908090
3676 184 1 15.295563 3.256809 3.943748
3677 184 1 16.265563 3.242121 3.854224
3678 184 1 17.235563 3.270726 3.930308
3679 184 1 18.205563 3.328341 3.883834
3680 184 1 19.175563 3.203918 3.945401
3681 185 1 -7.999072 6.494979 2.245063
3682 185 1 -7.029072 6.387655 2.138790
3683 185 1 -6.059072 6.397224 2.257014
3684 185 1 -5.089072 6.398740 2.195317
3685 185 1 -4.119072 6.536827 2.259980
3686 185 1 -3.149072 6.509904 2.176568
3687 185 1 -2.179072 6.410673 2.230387
3688 185 1 -1.209072 6.489720 2.226520
3689 185 1 -0.239072 6.571567 2.252518
3690 185 1 0.730928 6.468604 2.260839
3691 185 1 1.700928 6.500112 2.107079
3692 185 1 2.670928 6.549221 2.179828
3693 185 1 3.640928 6.423090 2.280525
3694 185 1 4.610928 6.421939 2.240986
3695 185 1 5.580928 6.496937 2.118897
3696 185 1 6.550928 6.490316 2.198512
3697 185 1 7.520928 6.401957 2.243666
3698 185 1 8.490928 6.381225 2.177860
3699 185 1 9.460928 6.451019 2.086357
3700 185 1 10.430928 6.495680 2.222040
3701 186 1 -4.045200 9.715315 -0.591608
3702 186 1 -3.075200 9.781015 -0.535225
3703 186 1 -2.105200 9.664336 -0.551322
3704 186 1 -1.135200 9.761351 -0.459375
3705 186 1 -0.165200 9.830843 -0.520260
3706 186 1 0.804800 9.671007 -0.500742
3707 186 1 1.774800 9.780367 -0.518431
3708 186 1 2.744800 9.846026 -0.600156
3709 186 1 3.714800 9.815559 -0.551794
3710 186 1 4.684800 9.726968 -0.565811
3711 186 1 5.654800 9.761811 -0.521181
3712 186 1 6.624800 9.729218 -0.573032
3713 186 1 7.594800 9.696105 -0.563649
3714 186 1 8.564800 9.692186 -0.590693
3715 186 1 9.534800 9.709476 -0.518840
3716 186 1 10.504800 9.823082 -0.447827
3717 186 1 11.474800 9.831793 -0.524447
3718 186 1 12.444800 9.675608 -0.513114
3719 186 1 13.414800 9.691599 -0.471900
3720 186 1 14.384800 9.706138 -0.495944
3721 187 1 7.030292 5.008742 0.797991
3722 187 1 8.000292 4.934122 0.726046
3723 187 1 8.970292 4.916264 0.821740
3724 187 1 9.940292 5.016666 0.643000
3725 187 1 10.910292 5.004722 0.825180
3726 187 1 11.880292 5.051333 0.725632
3727 187 1 12.850292 5.063581 0.719307
3728 187 1 13.820292 4.955660 0.813397
3729 187 1 14.790292 5.112348 0.824375
3730 187 1 15.760292 5.053158 0.694142
3731 187 1 16.730292 5.002444 0.668078
3732 187 1 17.700292 5.112011 0.808039
3733 187 1 18.670292 5.082422 0.641186
3734 187 1 19.640292 5.067760 0.756273
3735 187 1 20.610292 4.919423 0.646992
3736 187 1 21.580292 5.032677 0.785037
3737 187 1 22.550292 5.105252 0.698537
3738 187 1 23.520292 5.002681 0.824266
3739 187 1 24.490292 5.094181 0.817247
3740 187 1 25.460292 5.088350 0.771736
3741 188 1 -3.584807 -0.258428 4.161117
3742 188 1 -2.614807 -0.148211 4.037126
3743 188 1 -1.644807 -0.251334 4.146584
3744 188 1 -0.674807 -0.300395 4.032721
3745 188 1 0.295193 -0.253750 4.026983
3746 188 1 1.265193 -0.282254 4.062565
3747 188 1 2.235193 -0.318409 4.028728
3748 188 1 3.205193 -0.316146 4.099275
3749 188 1 4.175193 -0.280944 4.171243
3750 188 1 5.145193 -0.285838 4.108416
3751 188 1 6.115193 -0.179623 4.112078
3752 188 1 7.085193 -0.205983 4.193049
3753 188 1 8.055193 -0.308111 4.081187
3754 188 1 9.025193 -0.223746 4.115427
3755 188 1 9.995193 -0.285489 4.075935
3756 188 1 10.965193 -0.227745 4.043293
3757 188 1 11.935193 -0.137600 4.218558
3758 188 1 12.905193 -0.307781 4.027001
3759 188 1 13.875193 -0.184576 4.195366
3760 188 1 14.845193 -0.133927 4.030786
3761 189 1 -0.000445 5.341096 -4.747828
3762 189 1 0.969555 5.500281 -4.672852
3763 189 1 1.939555 5.345819 -4.715340
3764 189 1 2.909555 5.357841 -4.613590
3765 189 1 3.879555 5.365143 -4.617970
3766 189 1 4.849555 5.429038 -4.628061
3767 189 1 5.819555 5.350431 -4.742074
3768 189 1 6.789555 5.465489 -4.716527
3769 189 1 7.759555 5.478562 -4.553816
3770 189 1 8.729555 5.326725 -4.686116
3771 189 1 9.699555 5.429255 -4.675859
3772 189 1 10.669555 5.445548 -4.695203
3773 189 1 11.639555 5.431179 -4.729732
3774 189 1 12.609555 5.485050 -4.627275
3775 189 1 13.579555 5.416230 -4.598944
3776 189 1 14.549555 5.479375 -4.569473
3777 189 1 15.519555 5.443517 -4.694219
3778 189 1 16.489555 5.398692 -4.640222
3779 189 1 17.459555 5.478643 -4.727867
3780 189 1 18.429555 5.423063 -4.566626
3781 190 1 -7.316070 -5.245971 -4.017720
3782 190 1 -6.346070 -5.303563 -3.835535
3783 190 1 -5.376070 -5.179684 -3.941737
3784 190 1 -4.406070 -5.236350 -3.947087
3785 190 1 -3.436070 -5.211673 -3.873195
3786 190 1 -2.466070 -5.331192 -3.973303
3787 190 1 -1.496070 -5.278446 -3.925158
3788 190 1 -0.526070 -5.260758 -3.951506
3789 190 1 0.443930 -5.339662 -3.981700
3790 190 1 1.413930 -5.328864 -3.924069
3791 190 1 2.383930 -5.218462 -3.851978
3792 190 1 3.353930 -5.310237 -3.851626
3793 190 1 4.323930 -5.335830 -3.872950
3794 190 1 5.293930 -5.300017 -4.011187
3795 190 1 6.263930 -5.259955 -3.999557
3796 190 1 7.233930 -5.182715 -3.911943
3797 190 1 8.203930 -5.155235 -3.958701
3798 190 1 9.173930 -5.183442 -3.849031
3799 190 1 10.143930 -5.251841 -3.842498
3800 190 1 11.113930 -5.196592 -3.985576
3801 191 1 4.518045 0.687444 -9.493642
3802 191 1 5.488045 0.849155 -9.407496
3803 191 1 6.458045 0.770285 -9.424912
3804 191 1 7.428045 0.815630 -9.554961
3805 191 1 8.398045 0.686977 -9.473033
3806 191 1 9.368045 0.729946 -9.438576
3807 191 1 10.338045 0.807093 -9.540049
3808 191 1 11.308045 0.679254 -9.480871
3809 191 1 12.278045 0.679899 -9.423748
3810 191 1 13.248045 0.827844 -9.491385
3811 191 1 14.218045 0.810625 -9.393578
3812 191 1 15.188045 0.689484 -9.386441
3813 191 1 16.158045 0.718058 -9.403158
3814 191 1 17.128045 0.763144 -9.520106
3815 191 1 18.098045 0.784191 -9.446527
3816 191 1 19.068045 0.705502 -9.500481
3817 191 1 20.038045 0.720058 -9.552577
3818 191 1 21.008045 0.775953 -9.399321
3819 191 1 21.978045 0.858234 -9.552435
3820 191 1 22.948045 0.864698 -9.570861
3821 192 1 6.005815 9.020711 -8.566163
3822 192 1 6.975815 9.184552 -8.516680
3823 192 1 7.945815 9.027901 -8.484691
3824 192 1 8.915815 9.016308 -8.390696
3825 192 1 9.885815 9.148845 -8.399666
3826 192 1 10.855815 9.179322 -8.548936
3827 192 1 11.825815 9.122868 -8.389993
3828 192 1 12.795815 9.124281 -8.503412
3829 192 1 13.765815 9.095610 -8.512853
3830 192 1 14.735815 9.095018 -8.533901
3831 192 1 15.705815 9.163575 -8.436415
3832 192 1 16.675815 8.996652 -8.538984
3833 192 1 17.645815 9.184741 -8.496952
3834 192 1 18.615815 8.993961 -8.521215
3835 192 1 19.585815 9.108330 -8.426539
3836 192 1 20.555815 9.159265 -8.442917
3837 192 1 21.525815 9.040434 -8.494104
3838 192 1 22.495815 9.106195 -8.410849
3839 192 1 23.465815 9.140897 -8.543373
3840 192 1 24.435815 9.028529 -8.510996
3841 193 1 -8.146878 2.764137 3.164065
3842 193 1 -7.176878 2.769158 3.080235
3843 193 1 -6.206878 2.777952 3.091542
3844 193 1 -5.236878 2.656039 3.128844
3845 193 1 -4.266878 2.657129 3.087847
3846 193 1 -3.296878 2.702006 3.253961
3847 193 1 -2.326878 2.630395 3.114446
3848 193 1 -1.356878 2.769150 3.122361
3849 193 1 -0.386878 2.675603 3.212178
3850 193 1 0.583122 2.624749 3.223464
3851 193 1 1.553122 2.689589 3.144438
3852 193 1 2.523122 2.715182 3.201217
3853 193 1 3.493122 2.630365 3.136952
3854 193 1 4.463122 2.758137 3.226618
3855 193 1 5.433122 2.734500 3.101770
3856 193 1 6.403122 2.605134 3.221632
3857 193 1 7.373122 2.637940 3.131886
3858 193 1 8.343122 2.613530 3.141557
3859 193 1 9.313122 2.772999 3.140357
3860 193 1 10.283122 2.601721 3.235466
3861 194 1 3.168951 1.247970 -1.347597
3862 194 1 4.138951 1.371918 -1.320330
3863 194 1 5.108951 1.424495 -1.213301
3864 194 1 6.078951 1.395495 -1.384499
3865 194 1 7.048951 1.271463 -1.232679
3866 194 1 8.018951 1.304701 -1.347758
3867 194 1 8.988951 1.353980 -1.327739
3868 194 1 9.958951 1.361505 -1.239735
3869 194 1 10.928951 1.287066 -1.234305
3870 194 1 11.898951 1.275028 -1.207556
3871 194 1 12.868951 1.430879 -1.219363
3872 194 1 13.838951 1.389349 -1.228446
3873 194 1 14.808951 1.293035 -1.213464
3874 194 1 15.778951 1.404650 -1.367114
3875 194 1 16.748951 1.262811 -1.371928
3876 194 1 17.718951 1.313022 -1.218043
3877 194 1 18.688951 1.405249 -1.259637
3878 194 1 19.658951 1.292906 -1.304849
3879 194 1 20.628951 1.342233 -1.352817
3880 194 1 21.598951 1.334690 -1.372091
3881 195 1 -1.681802 1.945869 0.496519
3882 195 1 -0.711802 1.864264 0.474683
3883 195 1 0.258198 2.032534 0.548176
3884 195 1 1.228198 2.029011 0.403777
3885 195 1 2.198198 1.900418 0.414212
3886 195 1 3.168198 1.988287 0.436296
3887 195 1 4.138198 1.874535 0.429325
3888 195 1 5.108198 1.993478 0.549784
3889 195 1 6.078198 2.031589 0.494684
3890 195 1 7.048198 1.961911 0.536512
3891 195 1 8.018198 1.903962 0.549413
3892 195 1 8.988198 1.988452 0.401416
3893 195 1 9.958198 1.909294 0.367150
3894 195 1 10.928198 1.928286 0.404862
3895 195 1 11.898198 1.924857 0.404548
3896 195 1 12.868198 1.951854 0.422176
3897 195 1 13.838198 1.948003 0.558890
3898 195 1 14.808198 1.886523 0.389254
3899 195 1 15.778198 1.948903 0.467778
3900 195 1 16.748198 1.976972 0.419059
3901 196 1 8.394320 9.615782 -5.076784
3902 196 1 9.364320 9.667191 -5.146425
3903 196 1 10.334320 9.553879 -5.187485
3904 196 1 11.304320 9.592786 -5.221871
3905 196 1 12.274320 9.588422 -5.097966
3906 196 1 13.244320 9.643272 -5.131282
3907 196 1 14.214320 9.556053 -5.054580
3908 196 1 15.184320 9.570860 -5.190021
3909 196 1 16.154320 9.622930 -5.186781
3910 196 1 17.124320 9.687073 -5.095788
3911 196 1 18.094320 9.591220 -5.219222
3912 196 1 19.064320 9.557284 -5.245360
3913 196 1 20.034320 9.613096 -5.110681
3914 196 1 21.004320 9.509358 -5.112103
3915 196 1 21.974320 9.500154 -5.237969
3916 196 1 22.944320 9.597844 -5.053935
3917 196 1 23.914320 9.585907 -5.146453
3918 196 1 24.884320 9.636259 -5.150718
3919 196 1 25.854320 9.690354 -5.064986
3920 196 1 26.824320 9.668899 -5.192296
3921 197 1 -0.053854 6.157429 0.205768
3922 197 1 0.916146 6.115262 0.191030
3923 197 1 1.886146 6.136040 0.101539
3924 197 1 2.856146 6.094645 0.172599
3925 197 1 3.826146 6.017297 0.076352
3926 197 1 4.796146 6.168907 0.116835
3927 197 1 5.766146 6.118570 0.200255
3928 197 1 6.736146 5.997651 0.218028
3929 197 1 7.706146 6.081887 0.173039
3930 197 1 8.676146 6.183172 0.100689
3931 197 1 9.646146 6.120038 0.194308
3932 197 1 10.616146 6.133993 0.154549
3933 197 1 11.586146 6.160779 0.171585
3934 197 1 12.556146 6.165335 0.164296
3935 197 1 13.526146 6.145210 0.205639
3936 197 1 14.496146 6.007984 0.187139
3937 197 1 15.466146 6.026940 0.097089
3938 197 1 16.436146 6.150811 0.215194
3939 197 1 17.406146 6.101114 0.120993
3940 197 1 18.376146 6.027857 0.139074
3941 198 1 -1.627850 -2.306348 6.687802
3942 198 1 -0.657850 -2.379575 6.706267
3943 198 1 0.312150 -2.423422 6.660652
3944 198 1 1.282150 -2.369401 6.728303
3945 198 1 2.252150 -2.320066 6.656531
3946 198 1 3.222150 -2.392409 6.628787
3947 198 1 4.192150 -2.341333 6.733837
3948 198 1 5.162150 -2.401917 6.616158
3949 198 1 6.132150 -2.427442 6.687256
3950 198 1 7.102150 -2.424909 6.583756
3951 198 1 8.072150 -2.273178 6.634477
3952 198 1 9.042150 -2.349802 6.622266
3953 198 1 10.012150 -2.349892 6.645701
3954 198 1 10.982150 -2.389623 6.751132
3955 198 1 11.952150 -2.376197 6.671346
3956 198 1 12.922150 -2.369902 6.625331
3957 198 1 13.892150 -2.442782 6.649274
3958 198 1 14.862150 -2.353927 6.626483
3959 198 1 15.832150 -2.437861 6.725044
3960 198 1 16.802150 -2.405731 6.675190
3961 199 1 2.748233 -4.223079 -8.651233
3962 199 1 3.718233 -4.162273 -8.605388
3963 199 1 4.688233 -4.285626 -8.603763
3964 199 1 5.658233 -4.239948 -8.585152
3965 199 1 6.628233 -4.111320 -8.500279
3966 199 1 7.598233 -4.111675 -8.489635
3967 199 1 8.568233 -4.138198 -8.529698
3968 199 1 9.538233 -4.155638 -8.597501
3969 199 1 10.508233 -4.277317 -8.470001
3970 199 1 11.478233 -4.128530 -8.548147
3971 199 1 12.448233 -4.168016 -8.496844
3972 199 1 13.418233 -4.158875 -8.616455
3973 199 1 14.388233 -4.112438 -8.663080
3974 199 1 15.358233 -4.177504 -8.508986
3975 199 1 16.328233 -4.135171 -8.624765
3976 199 1 17.298233 -4.277037 -8.482958
3977 199 1 18.268233 -4.146829 -8.574694
3978 199 1 19.238233 -4.147292 -8.652138
3979 199 1 20.208233 -4.302293 -8.474896
3980 199 1 21.178233 -4.268732 -8.572699
3981 200 1 1.571372 2.537086 1.921142
3982 200 1 2.541372 2.457895 1.901557
3983 200 1 3.511372 2.592294 1.998946
3984 200 1 4.481372 2.595684 1.833747
3985 200 1 5.451372 2.526320 1.925300
3986 200 1 6.421372 2.534361 1.995407
3987 200 1 7.391372 2.473409 1.862576
3988 200 1 8.361372 2.489443 2.006309
3989 200 1 9.331372 2.484182 1.955871
3990 200 1 10.301372 2.601492 1.849538
3991 200 1 11.271372 2.502164 2.022557
3992 200 1 12.241372 2.559913 1.993340
3993 200 1 13.211372 2.478490 1.879224
3994 200 1 14.181372 2.523321 1.854692
3995 200 1 15.151372 2.570683 1.902537
3996 200 1 16.121372 2.587889 1.913673
3997 200 1 17.091372 2.417449 1.940901
3998 200 1 18.061372 2.465963 2.015988
3999 200 1 19.031372 2.557630 1.874998
4000 200 1 20.001372 2.553796 1.889394
4001 201 1 -6.658853 2.426437 -2.329739
4002 201 1 -5.688853 2.509839 -2.164634
4003 201 1 -4.718853 2.472966 -2.321777
4004 201 1 -3.748853 2.494547 -2.186674
4005 201 1 -2.778853 2.448064 -2.244719
4006 201 1 -1.808853 2.481214 -2.184777
4007 201 1 -0.838853 2.565830 -2.294582
4008 201 1 0.131147 2.509738 -2.289946
4009 201 1 1.101147 2.518105 -2.152126
4010 201 1 2.071147 2.491104 -2.252980
4011 201 1 3.041147 2.509643 -2.275084
4012 201 1 4.011147 2.564358 -2.175810
4013 201 1 4.981147 2.449599 -2.219552
4014 201 1 5.951147 2.541811 -2.177638
4015 201 1 6.921147 2.416652 -2.156232
4016 201 1 7.891147 2.569495 -2.214953
4017 201 1 8.861147 2.422918 -2.324161
4018 201 1 9.831147 2.583342 -2.162629
4019 201 1 10.801147 2.549665 -2.313973
4020 201 1 11.771147 2.554970 -2.173965
4021 202 1 -0.453431 -8.149652 -6.679184
4022 202 1 0.516569 -8.206034 -6.682735
4023 202 1 1.486569 -8.193050 -6.689038
4024 202 1 2.456569 -8.254770 -6.659075
4025 202 1 3.426569 -8.075026 -6.832396
4026 202 1 4.396569 -8.254206 -6.820390
4027 202 1 5.366569 -8.196322 -6.682037
4028 202 1 6.336569 -8.180888 -6.760762
4029 202 1 7.306569 -8.169764 -6.800859
4030 202 1 8.276569 -8.163779 -6.735692
4031 202 1 9.246569 -8.173372 -6.742427
4032 202 1 10.216569 -8.239315 -6.767460
4033 202 1 11.186569 -8.231639 -6.843435
4034 202 1 12.156569 -8.224757 -6.721543
4035 202 1 13.126569 -8.216290 -6.694877
4036 202 1 14.096569 -8.114497 -6.709674
4037 202 1 15.066569 -8.144901 -6.795187
4038 202 1 16.036569 -8.114080 -6.740313
4039 202 1 17.006569 -8.157659 -6.682654
4040 202 1 17.976569 -8.213037 -6.715125
4041 203 1 9.493152 -0.847950 9.722643
4042 203 1 10.463152 -0.699565 9.769088
4043 203 1 11.433152 -0.854109 9.728744
4044 203 1 12.403152 -0.715261 9.729569
4045 203 1 13.373152 -0.761122 9.743984
4046 203 1 14.343152 -0.679153 9.726010
4047 203 1 15.313152 -0.826127 9.839419
4048 203 1 16.283152 -0.749020 9.769704
4049 203 1 17.253152 -0.844444 9.745245
4050 203 1 18.223152 -0.785524 9.874073
4051 203 1 19.193152 -0.704413 9.684642
4052 203 1 20.163152 -0.731040 9.849253
4053 203 1 21.133152 -0.697615 9.778722
4054 203 1 22.103152 -0.750156 9.799234
4055 203 1 23.073152 -0.717753 9.845208
4056 203 1 24.043152 -0.825552 9.771402
4057 203 1 25.013152 -0.720969 9.851671
4058 203 1 25.983152 -0.675137 9.777237
4059 203 1 26.953152 -0.697138 9.855412
4060 203 1 27.923152 -0.720263 9.741261
4061 204 1 4.815306 -0.425076 0.506942
4062 204 1 5.785306 -0.353528 0.493228
4063 204 1 6.755306 -0.258554 0.555320
4064 204 1 7.725306 -0.304674 0.441632
4065 204 1 8.695306 -0.299935 0.505734
4066 204 1 9.665306 -0.380705 0.586755
4067 204 1 10.635306 -0.360077 0.591467
4068 204 1 11.605306 -0.344220 0.503717
4069 204 1 12.575306 -0.310453 0.514302
4070 204 1 13.545306 -0.290168 0.556599
4071 204 1 14.515306 -0.300454 0.483567
4072 204 1 15.485306 -0.421646 0.469852
4073 204 1 16.455306 -0.315806 0.457216
4074 204 1 17.425306 -0.315423 0.597324
4075 204 1 18.395306 -0.309446 0.535444
4076 204 1 19.365306 -0.282690 0.434125
4077 204 1 20.335306 -0.284493 0.528556
4078 204 1 21.305306 -0.420800 0.467757
4079 204 1 22.275306 -0.414981 0.510964
4080 204 1 23.245306 -0.330826 0.597104
4081 205 1 -4.221419 -4.832063 0.055171
4082 205 1 -3.251419 -4.756732 0.085164
4083 205 1 -2.281419 -4.785788 -0.054944
4084 205 1 -1.311419 -4.669294 -0.036311
4085 205 1 -0.341419 -4.715359 0.046194
4086 205 1 0.628581 -4.849994 -0.034452
4087 205 1 1.598581 -4.794357 0.111046
4088 205 1 2.568581 -4.824199 -0.028082
4089 205 1 3.538581 -4.762010 0.101724
4090 205 1 4.508581 -4.742489 0.025000
4091 205 1 5.478581 -4.744180 0.017862
4092 205 1 6.448581 -4.841020 -0.050973
4093 205 1 7.418581 -4.758634 -0.001294
4094 205 1 8.388581 -4.725982 0.135141
4095 205 1 9.358581 -4.761822 0.038511
4096 205 1 10.328581 -4.712434 0.106311
4097 205 1 11.298581 -4.731273 -0.012211
4098 205 1 12.268581 -4.752887 0.118105
4099 205 1 13.238581 -4.825612 -0.052071
4100 205 1 14.208581 -4.802378 0.006024
4101 206 1 -8.775998 -3.240742 -5.410957
4102 206 1 -7.805998 -3.311485 -5.420210
4103 206 1 -6.835998 -3.302624 -5.523082
4104 206 1 -5.865998 -3.349473 -5.423415
4105 206 1 -4.895998 -3.354381 -5.476843
4106 206 1 -3.925998 -3.234340 -5.457438
4107 206 1 -2.955998 -3.374248 -5.346727
4108 206 1 -1.985998 -3.366014 -5.382606
4109 206 1 -1.015998 -3.386939 -5.486339
4110 206 1 -0.045998 -3.209755 -5.475711
4111 206 1 0.924002 -3.355356 -5.405438
4112 206 1 1.894002 -3.256666 -5.438868
4113 206 1 2.864002 -3.281560 -5.376507
4114 206 1 3.834002 -3.295057 -5.451910
4115 206 1 4.804002 -3.232249 -5.517205
4116 206 1 5.774002 -3.207845 -5.344574
4117 206 1 6.744002 -3.336161 -5.386544
4118 206 1 7.714002 -3.323373 -5.466337
4119 206 1 8.684002 -3.377917 -5.467037
4120 206 1 9.654002 -3.323752 -5.476432
4121 207 1 4.101986 -6.720827 -7.660122
4122 207 1 5.071986 -6.735971 -7.807315
4123 207 1 6.041986 -6.710687 -7.793207
4124 207 1 7.011986 -6.767554 -7.786454
4125 207 1 7.981986 -6.750788 -7.768759
4126 207 1 8.951986 -6.898129 -7.619990
4127 207 1 9.921986 -6.887447 -7.775701
4128 207 1 10.891986 -6.902384 -7.698282
4129 207 1 11.861986 -6.750962 -7.714938
4130 207 1 12.831986 -6.833459 -7.648916
4131 207 1 13.801986 -6.709982 -7.748859
4132 207 1 14.771986 -6.886760 -7.789297
4133 207 1 15.741986 -6.728365 -7.683262
4134 207 1 16.711986 -6.804588 -7.745272
4135 207 1 17.681986 -6.815707 -7.672815
4136 207 1 18.651986 -6.878747 -7.639874
4137 207 1 19.621986 -6.769261 -7.772496
4138 207 1 20.591986 -6.873793 -7.778371
4139 207 1 21.561986 -6.800412 -7.750497
4140 207 1 22.531986 -6.862267 -7.643727
4141 208 1 -1.234141 -2.750213 -3.508243
4142 208 1 -0.264141 -2.747766 -3.408242
4143 208 1 0.705859 -2.667705 -3.512706
4144 208 1 1.675859 -2.620164 -3.590846
4145 208 1 2.645859 -2.620969 -3.413056
4146 208 1 3.615859 -2.606902 -3.468173
4147 208 1 4.585859 -2.666670 -3.574246
4148 208 1 5.555859 -2.751791 -3.506093
4149 208 1 6.525859 -2.584282 -3.410892
4150 208 1 7.495859 -2.625858 -3.492967
4151 208 1 8.465859 -2.636462 -3.423137
4152 208 1 9.435859 -2.741896 -3.502648
4153 208 1 10.405859 -2.562537 -3.542394
4154 208 1 11.375859 -2.666546 -3.456564
4155 208 1 12.345859 -2.597243 -3.552396
4156 208 1 13.315859 -2.693519 -3.516945
4157 208 1 14.285859 -2.565174 -3.419996
4158 208 1 15.255859 -2.622632 -3.526287
4159 208 1 16.225859 -2.696285 -3.583956
4160 208 1 17.195859 -2.741252 -3.476361
4161 209 1 -2.057616 0.505339 -4.317248
4162 209 1 -1.087616 0.531570 -4.443782
4163 209 1 -0.117616 0.519840 -4.408959
4164 209 1 0.852384 0.415639 -4.327998
4165 209 1 1.822384 0.551649 -4.318863
4166 209 1 2.792384 0.504735 -4.415096
4167 209 1 3.762384 0.464566 -4.368730
4168 209 1 4.732384 0.453003 -4.471277
4169 209 1 5.702384 0.481599 -4.443238
4170 209 1 6.672384 0.554841 -4.322860
4171 209 1 7.642384 0.458553 -4.301458
4172 209 1 8.612384 0.450550 -4.276883
4173 209 1 9.582384 0.558317 -4.404595
4174 209 1 10.552384 0.530969 -4.349607
4175 209 1 11.522384 0.420504 -4.379685
4176 209 1 12.492384 0.520427 -4.356293
4177 209 1 13.462384 0.473003 -4.363383
4178 209 1 14.432384 0.378545 -4.448072
4179 209 1 15.402384 0.438011 -4.296978
4180 209 1 16.372384 0.478325 -4.318704
4181 210 1 2.876051 -1.161995 -7.271989
4182 210 1 3.846051 -1.078188 -7.272893
4183 210 1 4.816051 -1.183952 -7.260762
4184 210 1 5.786051 -1.075476 -7.204227
4185 210 1 6.756051 -1.174087 -7.212669
4186 210 1 7.726051 -1.184889 -7.351607
4187 210 1 8.696051 -1.113037 -7.311333
4188 210 1 9.666051 -1.043044 -7.359479
4189 210 1 10.636051 -1.177664 -7.313947
4190 210 1 11.606051 -1.071631 -7.248151
4191 210 1 12.576051 -1.102401 -7.183216
4192 210 1 13.546051 -1.093932 -7.275227
4193 210 1 14.516051 -1.054492 -7.345481
4194 210 1 15.486051 -1.056580 -7.272430
4195 210 1 16.456051 -1.099765 -7.267846
4196 210 1 17.426051 -1.126400 -7.336266
4197 210 1 18.396051 -1.147748 -7.187420
4198 210 1 19.366051 -1.106627 -7.286352
4199 210 1 20.336051 -1.072216 -7.287806
4200 210 1 21.306051 -1.087191 -7.206804
4201 211 1 4.346060 -5.991493 -3.622790
4202 211 1 5.316060 -6.000934 -3.517081
4203 211 1 6.286060 -6.007214 -3.516982
4204 211 1 7.256060 -6.042756 -3.473614
4205 211 1 8.226060 -5.997029 -3.602282
4206 211 1 9.196060 -6.005698 -3.588437
4207 211 1 10.166060 -5.981649 -3.534479
4208 211 1 11.136060 -5.981051 -3.473218
4209 211 1 12.106060 -5.889708 -3.623376
4210 211 1 13.076060 -6.021010 -3.594835
4211 211 1 14.046060 -6.030939 -3.497797
4212 211 1 15.016060 -5.926391 -3.507465
4213 211 1 15.986060 -5.964899 -3.456274
4214 211 1 16.956060 -5.982769 -3.481529
4215 211 1 17.926060 -5.976940 -3.471095
4216 211 1 18.896060 -5.937513 -3.494026
4217 211 1 19.866060 -5.905999 -3.528722
4218 211 1 20.836060 -6.063173 -3.534123
4219 211 1 21.806060 -5.929921 -3.466524
4220 211 1 22.776060 -5.883003 -3.649477
4221 212 1 -3.958606 9.272647 8.641966
4222 212 1 -2.988606 9.256601 8.665978
4223 212 1 -2.018606 9.230730 8.684130
4224 212 1 -1.048606 9.343904 8.793232
4225 212 1 -0.078606 9.259271 8.795394
4226 212 1 0.891394 9.393702 8.732668
4227 212 1 1.861394 9.308027 8.690425
4228 212 1 2.831394 9.328070 8.782187
4229 212 1 3.801394 9.300756 8.659593
4230 212 1 4.771394 9.329539 8.723065
4231 212 1 5.741394 9.346862 8.658036
4232 212 1 6.711394 9.224418 8.702473
4233 212 1 7.681394 9.271327 8.736270
4234 212 1 8.651394 9.244552 8.607058
4235 212 1 9.621394 9.390968 8.628925
4236 212 1 10.591394 9.291677 8.664512
4237 212 1 11.561394 9.320903 8.664820
4238 212 1 12.531394 9.292692 8.771860
4239 212 1 13.501394 9.393319 8.654734
4240 212 1 14.471394 9.336750 8.789649
4241 213 1 -6.442893 2.798576 1.971507
4242 213 1 -5.472893 2.798967 1.993888
4243 213 1 -4.502893 2.853289 2.118926
4244 213 1 -3.532893 2.892543 2.038303
4245 213 1 -2.562893 2.808965 1.959810
4246 213 1 -1.592893 2.909394 1.931129
4247 213 1 -0.622893 2.809147 1.999279
4248 213 1 0.347107 2.940869 2.077441
4249 213 1 1.317107 2.801628 2.107955
4250 213 1 2.287107 2.878194 2.083097
4251 213 1 3.257107 2.836116 2.031271
4252 213 1 4.227107 2.941486 2.066523
4253 213 1 5.197107 2.863435 2.049505
4254 213 1 6.167107 2.894370 2.017994
4255 213 1 7.137107 2.895228 2.012993
4256 213 1 8.107107 2.837274 2.039782
4257 213 1 9.077107 2.771372 2.086384
4258 213 1 10.047107 2.920827 2.034144
4259 213 1 11.017107 2.896524 1.988104
4260 213 1 11.987107 2.836262 2.048170
4261 214 1 7.104950 5.093303 6.978796
4262 214 1 8.074950 5.162471 6.967574
4263 214 1 9.044950 5.133049 6.899849
4264 214 1 10.014950 5.042353 6.835756
4265 214 1 10.984950 5.064594 6.967406
4266 214 1 11.954950 5.126150 6.988849
4267 214 1 12.924950 5.075993 6.818023
4268 214 1 13.894950 5.193740 6.944590
4269 214 1 14.864950 5.108224 6.903501
4270 214 1 15.834950 5.111085 6.947167
4271 214 1 16.804950 5.070890 6.897971
4272 214 1 17.774950 5.120887 6.978639
4273 214 1 18.744950 5.192269 6.954565
4274 214 1 19.714950 5.155125 6.910220
4275 214 1 20.684950 5.172385 6.839583
4276 214 1 21.654950 5.109725 6.880328
4277 214 1 22.624950 5.070465 6.836454
4278 214 1 23.594950 5.016049 6.972060
4279 214 1 24.564950 5.023491 6.845748
4280 214 1 25.534950 5.076224 6.937858
4281 215 1 8.921610 3.299554 -2.268047
4282 215 1 9.891610 3.336926 -2.299305
4283 215 1 10.861610 3.363475 -2.259546
4284 215 1 11.831610 3.359532 -2.439519
4285 215 1 12.801610 3.442369 -2.276206
4286 215 1 13.771610 3.355711 -2.345965
4287 215 1 14.741610 3.469393 -2.349325
4288 215 1 15.711610 3.449557 -2.313571
4289 215 1 16.681610 3.387960 -2.349701
4290 215 1 17.651610 3.372644 -2.289675
4291 215 1 18.621610 3.379333 -2.319999
4292 215 1 19.591610 3.322718 -2.291557
4293 215 1 20.561610 3.444668 -2.270035
4294 215 1 21.531610 3.449464 -2.360468
4295 215 1 22.501610 3.324374 -2.252227
4296 215 1 23.471610 3.351538 -2.262566
4297 215 1 24.441610 3.424678 -2.348403
4298 215 1 25.411610 3.287857 -2.444455
4299 215 1 26.381610 3.319514 -2.439526
4300 215 1 27.351610 3.470022 -2.355330
4301 216 1 9.036156 -2.618058 -9.316857
4302 216 1 10.006156 -2.599022 -9.415064
4303 216 1 10.976156 -2.525778 -9.266054
4304 216 1 11.946156 -2.572584 -9.346597
4305 216 1 12.916156 -2.604697 -9.219403
4306 216 1 13.886156 -2.636789 -9.330235
4307 216 1 14.856156 -2.656485 -9.245424
4308 216 1 15.826156 -2.647267 -9.343297
4309 216 1 16.796156 -2.600693 -9.384415
4310 216 1 17.766156 -2.599674 -9.407302
4311 216 1 18.736156 -2.659488 -9.260841
4312 216 1 19.706156 -2.536166 -9.349183
4313 216 1 20.676156 -2.578688 -9.320854
4314 216 1 21.646156 -2.590714 -9.240271
4315 216 1 22.616156 -2.699902 -9.273518
4316 216 1 23.586156 -2.626381 -9.348605
4317 216 1 24.556156 -2.595801 -9.272158
4318 216 1 25.526156 -2.536115 -9.406848
4319 216 1 26.496156 -2.636918 -9.231746
4320 216 1 27.466156 -2.704583 -9.223956
4321 217 1 -1.038865 -6.170955 -7.126206
4322 217 1 -0.068865 -6.262283 -7.074125
4323 217 1 0.901135 -6.115806 -7.060020
4324 217 1 1.871135 -6.190669 -7.228940
4325 217 1 2.841135 -6.305055 -7.209060
4326 217 1 3.811135 -6.243414 -7.107421
4327 217 1 4.781135 -6.300597 -7.117892
4328 217 1 5.751135 -6.216570 -7.136372
4329 217 1 6.721135 -6.284996 -7.170821
4330 217 1 7.691135 -6.281819 -7.128655
4331 217 1 8.661135 -6.241454 -7.135047
4332 217 1 9.631135 -6.235335 -7.173386
4333 217 1 10.601135 -6.249789 -7.042692
4334 217 1 11.571135 -6.218305 -7.123899
4335 217 1 12.541135 -6.275877 -7.192260
4336 217 1 13.511135 -6.273050 -7.179815
4337 217 1 14.481135 -6.189665 -7.237460
4338 217 1 15.451135 -6.176701 -7.046503
4339 217 1 16.421135 -6.235557 -7.102787
4340 217 1 17.391135 -6.128545 -7.161266
4341 218 1 2.010031 4.285897 -9.952026
4342 218 1 2.980031 4.310715 -9.807839
4343 218 1 3.950031 4.355740 -9.769822
4344 218 1 4.920031 4.251442 -9.864570
4345 218 1 5.890031 4.408677 -9.899204
4346 218 1 6.860031 4.411706 -9.787700
4347 218 1 7.830031 4.295749 -9.845263
4348 218 1 8.800031 4.237006 -9.894641
4349 218 1 9.770031 4.306098 -9.885591
4350 218 1 10.740031 4.264818 -9.904447
4351 218 1 11.710031 4.418830 -9.918864
4352 218 1 12.680031 4.398424 -9.864574
4353 218 1 13.650031 4.401292 -9.905061
4354 218 1 14.620031 4.255897 -9.764715
4355 218 1 15.590031 4.254799 -9.851141
4356 218 1 16.560031 4.321783 -9.806226
4357 218 1 17.530031 4.266318 -9.883097
4358 218 1 18.500031 4.356846 -9.930983
4359 218 1 19.470031 4.399333 -9.930415
4360 218 1 20.440031 4.365588 -9.821549
4361 219 1 -8.638435 -2.820828 -8.030295
4362 219 1 -7.668435 -2.946907 -8.042430
4363 219 1 -6.698435 -2.922584 -8.081632
4364 219 1 -5.728435 -2.992248 -7.918244
4365 219 1 -4.758435 -2.982913 -8.043348
4366 219 1 -3.788435 -2.809215 -8.039091
4367 219 1 -2.818435 -2.952740 -7.941814
4368 219 1 -1.848435 -2.863521 -7.975297
4369 219 1 -0.878435 -2.911028 -8.034401
4370 219 1 0.091565 -2.832752 -8.049640
4371 219 1 1.061565 -2.801647 -7.971283
4372 219 1 2.031565 -2.798442 -7.911654
4373 219 1 3.001565 -2.889602 -8.003358
4374 219 1 3.971565 -2.881109 -7.908729
4375 219 1 4.941565 -2.990541 -7.994466
4376 219 1 5.911565 -2.934766 -8.056223
4377 219 1 6.881565 -2.859359 -8.031348
4378 219 1 7.851565 -2.886379 -8.060114
4379 219 1 8.821565 -2.879878 -7.913429
4380 219 1 9.791565 -2.976171 -8.096550
4381 220 1 3.894088 -6.348977 4.546386
4382 220 1 4.864088 -6.485479 4.612981
4383 220 1 5.834088 -6.484551 4.571222
4384 220 1 6.804088 -6.436980 4.454570
4385 220 1 7.774088 -6.519936 4.574771
4386 220 1 8.744088 -6.434415 4.620556
4387 220 1 9.714088 -6.395378 4.516211
4388 220 1 10.684088 -6.529955 4.482102
4389 220 1 11.654088 -6.500199 4.604464
4390 220 1 12.624088 -6.462923 4.464882
4391 220 1 13.594088 -6.429951 4.469185
4392 220 1 14.564088 -6.507883 4.587254
4393 220 1 15.534088 -6.523811 4.514422
4394 220 1 16.504088 -6.403506 4.561516
4395 220 1 17.474088 -6.452361 4.605978
4396 220 1 18.444088 -6.475946 4.512889
4397 220 1 19.414088 -6.352896 4.607089
4398 220 1 20.384088 -6.477032 4.593481
4399 220 1 21.354088 -6.459724 4.580353
4400 220 1 22.324088 -6.439448 4.616867
4401 221 1 -1.236832 -3.306152 2.344672
4402 221 1 -0.266832 -3.359249 2.454605
4403 221 1 0.703168 -3.293965 2.437477
4404 221 1 1.673168 -3.361235 2.280539
4405 221 1 2.643168 -3.370537 2.345678
4406 221 1 3.613168 -3.339819 2.439366
4407 221 1 4.583168 -3.348871 2.373859
4408 221 1 5.553168 -3.364994 2.462178
4409 221 1 6.523168 -3.399010 2.451039
4410 221 1 7.493168 -3.454831 2.277287
4411 221 1 8.463168 -3.324963 2.386385
4412 221 1 9.433168 -3.290239 2.443070
4413 221 1 10.403168 -3.445035 2.274324
4414 221 1 11.373168 -3.277111 2.320866
4415 221 1 12.343168 -3.415624 2.411279
4416 221 1 13.313168 -3.267606 2.301073
4417 221 1 14.283168 -3.257096 2.344926
4418 221 1 15.253168 -3.448338 2.341088
4419 221 1 16.223168 -3.296317 2.410859
4420 221 1 17.193168 -3.434304 2.334779
4421 222 1 0.746622 -3.625585 -1.290238
4422 222 1 1.716622 -3.701956 -1.385551
4423 222 1 2.686622 -3.781126 -1.279601
4424 222 1 3.656622 -3.730392 -1.406924
4425 222 1 4.626622 -3.656785 -1.378630
4426 222 1 5.596622 -3.736564 -1.378480
4427 222 1 6.566622 -3.651472 -1.439987
4428 222 1 7.536622 -3.764947 -1.259509
4429 222 1 8.506622 -3.624643 -1.297878
4430 222 1 9.476622 -3.820297 -1.343431
4431 222 1 10.446622 -3.748272 -1.374068
4432 222 1 11.416622 -3.637381 -1.430706
4433 222 1 12.386622 -3.677420 -1.380232
4434 222 1 13.356622 -3.655575 -1.416867
4435 222 1 14.326622 -3.699137 -1.322915
4436 222 1 15.296622 -3.651858 -1.402414
4437 222 1 16.266622 -3.737862 -1.263192
4438 222 1 17.236622 -3.718478 -1.367819
4439 222 1 18.206622 -3.679725 -1.458303
4440 222 1 19.176622 -3.812034 -1.306680
4441 223 1 2.415974 -1.941800 -7.118876
4442 223 1 3.385974 -1.997448 -7.143978
4443 223 1 4.355974 -1.892578 -7.128245
4444 223 1 5.325974 -2.010516 -7.193208
4445 223 1 6.295974 -1.934679 -7.162066
4446 223 1 7.265974 -1.882090 -7.151551
4447 223 1 8.235974 -1.891039 -7.196168
4448 223 1 9.205974 -1.951691 -7.246775
4449 223 1 10.175974 -1.973822 -7.099614
4450 223 1 11.145974 -1.977287 -7.241910
4451 223 1 12.115974 -1.962889 -7.160148
4452 223 1 13.085974 -1.908469 -7.246231
4453 223 1 14.055974 -2.045861 -7.143278
4454 223 1 15.025974 -2.047331 -7.208520
4455 223 1 15.995974 -1.957366 -7.145745
4456 223 1 16.965974 -1.894836 -7.234193
4457 223 1 17.935974 -1.862213 -7.095026
4458 223 1 18.905974 -1.861780 -7.187938
4459 223 1 19.875974 -1.968232 -7.206914
4460 223 1 20.845974 -1.902482 -7.223118
4461 224 1 -2.982087 3.408401 6.667346
4462 224 1 -2.012087 3.411751 6.627429
4463 224 1 -1.042087 3.383846 6.682373
4464 224 1 -0.072087 3.401116 6.692798
4465 224 1 0.897913 3.305238 6.670596
4466 224 1 1.867913 3.261928 6.674029
4467 224 1 2.837913 3.328470 6.658385
4468 224 1 3.807913 3.305633 6.775209
4469 224 1 4.777913 3.325256 6.768201
4470 224 1 5.747913 3.452650 6.684458
4471 224 1 6.717913 3.324585 6.781597
4472 224 1 7.687913 3.372237 6.721857
4473 224 1 8.657913 3.419977 6.672810
4474 224 1 9.627913 3.412947 6.682155
4475 224 1 10.597913 3.409628 6.781669
4476 224 1 11.567913 3.453123 6.633540
4477 224 1 12.537913 3.453204 6.729220
4478 224 1 13.507913 3.326146 6.670036
4479 224 1 14.477913 3.295320 6.704261
4480 224 1 15.447913 3.318586 6.759611
4481 225 1 -9.778526 8.928219 9.105353
4482 225 1 -8.808526 8.891382 9.195817
4483 225 1 -7.838526 8.934333 9.088691
4484 225 1 -6.868526 9.061490 9.127174
4485 225 1 -5.898526 9.057960 9.222355
4486 225 1 -4.928526 8.931172 9.152379
4487 225 1 -3.958526 8.878938 9.178636
4488 225 1 -2.988526 8.919730 9.148319
4489 225 1 -2.018526 8.989051 9.135963
4490 225 1 -1.048526 8.884360 9.112840
4491 225 1 -0.078526 8.980225 9.108549
4492 225 1 0.891474 8.879416 9.143940
4493 225 1 1.861474 9.004005 9.029915
4494 225 1 2.831474 9.032650 9.209841
4495 225 1 3.801474 8.918220 9.125549
4496 225 1 4.771474 9.060328 9.180409
4497 225 1 5.741474 8.976703 9.181553
4498 225 1 6.711474 8.901894 9.061843
4499 225 1 7.681474 8.922791 9.094033
4500 225 1 8.651474 9.061935 9.098640
4501 226 1 8.219116 -8.457026 -0.572712
4502 226 1 9.189116 -8.614013 -0.405298
4503 226 1 10.159116 -8.490794 -0.481914
4504 226 1 11.129116 -8.612401 -0.409401
4505 226 1 12.099116 -8.473803 -0.506773
4506 226 1 13.069116 -8.581674 -0.564125
4507 226 1 14.039116 -8.488874 -0.402724
4508 226 1 15.009116 -8.601109 -0.404222
4509 226 1 15.979116 -8.440916 -0.459443
4510 226 1 16.949116 -8.531712 -0.469832
4511 226 1 17.919116 -8.511049 -0.507466
4512 226 1 18.889116 -8.478906 -0.458304
4513 226 1 19.859116 -8.507147 -0.546059
4514 226 1 20.829116 -8.442422 -0.390415
4515 226 1 21.799116 -8.463358 -0.548293
4516 226 1 22.769116 -8.533372 -0.444651
4517 226 1 23.739116 -8.504848 -0.384712
4518 226 1 24.709116 -8.458405 -0.392514
4519 226 1 25.679116 -8.601595 -0.501473
4520 226 1 26.649116 -8.481242 -0.575235
4521 227 1 7.223127 4.430198 4.129078
4522 227 1 8.193127 4.493499 4.189014
4523 227 1 9.163127 4.492930 4.140563
4524 227 1 10.133127 4.380064 4.085807
4525 227 1 11.103127 4.472819 4.140036
4526 227 1 12.073127 4.353987 4.197845
4527 227 1 13.043127 4.489596 4.081745
4528 227 1 14.013127 4.504100 4.178459
4529 227 1 14.983127 4.501510 4.115604
4530 227 1 15.953127 4.360908 4.224585
4531 227 1 16.923127 4.447131 4.221812
4532 227 1 17.893127 4.341157 4.244396
4533 227 1 18.863127 4.476509 4.069491
4534 227 1 19.833127 4.409755 4.235954
4535 227 1 20.803127 4.420809 4.053340
4536 227 1 21.773127 4.316565 4.201689
4537 227 1 22.743127 4.344225 4.226182
4538 227 1 23.713127 4.339875 4.144381
4539 227 1 24.683127 4.360060 4.158336
4540 227 1 25.653127 4.503691 4.130885
4541 228 1 -6.106524 5.809916 7.593373
4542 228 1 -5.136524 5.790388 7.732490
4543 228 1 -4.166524 5.923408 7.617466
4544 228 1 -3.196524 5.921896 7.689250
4545 228 1 -2.226524 5.769127 7.648279
4546 228 1 -1.256524 5.767218 7.604718
4547 228 1 -0.286524 5.817705 7.668869
4548 228 1 0.683476 5.825268 7.643094
4549 228 1 1.653476 5.802991 7.659617
4550 228 1 2.623476 5.884730 7.604441
4551 228 1 3.593476 5.791843 7.591558
4552 228 1 4.563476 5.728917 7.693586
4553 228 1 5.533476 5.840958 7.662241
4554 228 1 6.503476 5.902969 7.730576
4555 228 1 7.473476 5.892093 7.698052
4556 228 1 8.443476 5.743825 7.622669
4557 228 1 9.413476 5.870807 7.587396
4558 228 1 10.383476 5.878932 7.756591
4559 228 1 11.353476 5.769665 7.718768
4560 228 1 12.323476 5.794520 7.633326
4561 229 1 -3.653353 1.870012 9.591317
4562 229 1 -2.683353 1.962222 9.486900
4563 229 1 -1.713353 1.928974 9.557650
4564 229 1 -0.743353 1.927855 9.516247
4565 229 1 0.226647 1.958318 9.506086
4566 229 1 1.196647 2.058891 9.463479
4567 229 1 2.166647 2.067484 9.638234
4568 229 1 3.136647 1.932143 9.520144
4569 229 1 4.106647 1.927101 9.484253
4570 229 1 5.076647 1.981202 9.483893
4571 229 1 6.046647 1.952622 9.615699
4572 229 1 7.016647 1.945155 9.457971
4573 229 1 7.986647 1.881790 9.473912
4574 229 1 8.956647 1.875434 9.450884
4575 229 1 9.926647 2.012488 9.595074
4576 229 1 10.896647 2.042549 9.471788
4577 229 1 11.866647 2.053870 9.597575
4578 229 1 12.836647 1.903241 9.485283
4579 229 1 13.806647 2.018964 9.524359
4580 229 1 14.776647 1.998262 9.497759
4581 230 1 3.376497 -3.827242 -5.469706
4582 230 1 4.346497 -3.852470 -5.475454
4583 230 1 5.316497 -3.840316 -5.559838
4584 230 1 6.286497 -3.821898 -5.441628
4585 230 1 7.256497 -3.844755 -5.497712
4586 230 1 8.226497 -3.721620 -5.477312
4587 230 1 9.196497 -3.741990 -5.479984
4588 230 1 10.166497 -3.887733 -5.476719
4589 230 1 11.136497 -3.804969 -5.595140
4590 230 1 12.106497 -3.844292 -5.626213
4591 230 1 13.076497 -3.869550 -5.628327
4592 230 1 14.046497 -3.771246 -5.553448
4593 230 1 15.016497 -3.750720 -5.605726
4594 230 1 15.986497 -3.754541 -5.541451
4595 230 1 16.956497 -3.796318 -5.567517
4596 230 1 17.926497 -3.810614 -5.461743
4597 230 1 18.896497 -3.854080 -5.602835
4598 230 1 19.866497 -3.757394 -5.449506
4599 230 1 20.836497 -3.739992 -5.451037
4600 230 1 21.806497 -3.811334 -5.630580
4601 231 1 -8.813958 -7.460312 -8.120165
4602 231 1 -7.843958 -7.413756 -8.055513
4603 231 1 -6.873958 -7.360039 -8.154074
4604 231 1 -5.903958 -7.456593 -8.167783
4605 231 1 -4.933958 -7.326801 -8.084594
4606 231 1 -3.963958 -7.370679 -8.118788
4607 231 1 -2.993958 -7.342767 -8.130129
4608 231 1 -2.023958 -7.403286 -8.072157
4609 231 1 -1.053958 -7.404160 -8.125055
4610 231 1 -0.083958 -7.415683 -8.068544
4611 231 1 0.886042 -7.496603 -8.186406
4612 231 1 1.856042 -7.414527 -8.079772
4613 231 1 2.826042 -7.378895 -8.042342
4614 231 1 3.796042 -7.312076 -8.168533
4615 231 1 4.766042 -7.417730 -8.040287
4616 231 1 5.736042 -7.331492 -8.062175
4617 231 1 6.706042 -7.445059 -7.998169
4618 231 1 7.676042 -7.376219 -8.037017
4619 231 1 8.646042 -7.503794 -8.005161
4620 231 1 9.616042 -7.472503 -8.178339
4621 232 1 -6.216585 3.153262 1.629135
4622 232 1 -5.246585 3.216773 1.720340
4623 232 1 -4.276585 3.158317 1.683421
4624 232 1 -3.306585 3.152910 1.621619
4625 232 1 -2.336585 3.232328 1.589738
4626 232 1 -1.366585 3.143170 1.585811
4627 232 1 -0.396585 3.218574 1.637352
4628 232 1 0.573415 3.093833 1.602196
4629 232 1 1.543415 3.204655 1.704340
4630 232 1 2.513415 3.052725 1.699092
4631 232 1 3.483415 3.209406 1.719434
4632 232 1 4.453415 3.118473 1.718913
4633 232 1 5.423415 3.194269 1.568150
4634 232 1 6.393415 3.142148 1.728272
4635 232 1 7.363415 3.231007 1.627386
4636 232 1 8.333415 3.157102 1.670485
4637 232 1 9.303415 3.136436 1.565944
4638 232 1 10.273415 3.108198 1.637940
4639 232 1 11.243415 3.169472 1.653675
4640 232 1 12.213415 3.050369 1.615251
4641 233 1 -8.476961 -9.402084 -8.229736
4642 233 1 -7.506961 -9.458222 -8.116623
4643 233 1 -6.536961 -9.438509 -8.081652
4644 233 1 -5.566961 -9.492885 -8.189539
4645 233 1 -4.596961 -9.461509 -8.156723
4646 233 1 -3.626961 -9.397067 -8.224142
4647 233 1 -2.656961 -9.383316 -8.130143
4648 233 1 -1.686961 -9.373614 -8.088725
4649 233 1 -0.716961 -9.473671 -8.083998
4650 233 1 0.253039 -9.382041 -8.187424
4651 233 1 1.223039 -9.468611 -8.107278
4652 233 1 2.193039 -9.467730 -8.208879
4653 233 1 3.163039 -9.360642 -8.161494
4654 233 1 4.133039 -9.534526 -8.068270
4655 233 1 5.103039 -9.468607 -8.229966
4656 233 1 6.073039 -9.368890 -8.064905
4657 233 1 7.043039 -9.489987 -8.165100
4658 233 1 8.013039 -9.383155 -8.185151
4659 233 1 8.983039 -9.493138 -8.063402
4660 233 1 9.953039 -9.401233 -8.152270
4661 234 1 2.113165 5.127715 -3.264804
4662 234 1 3.083165 4.980801 -3.362857
4663 234 1 4.053165 4.979343 -3.209711
4664 234 1 5.023165 5.125600 -3.349457
4665 234 1 5.993165 5.060082 -3.276648
4666 234 1 6.963165 5.112290 -3.301743
4667 234 1 7.933165 5.039322 -3.238807
4668 234 1 8.903165 5.023957 -3.287500
4669 234 1 9.873165 5.005080 -3.388431
4670 234 1 10.843165 4.960385 -3.206946
4671 234 1 11.813165 5.075691 -3.301703
4672 234 1 12.783165 5.006817 -3.324870
4673 234 1 13.753165 4.974640 -3.351796
4674 234 1 14.723165 5.087913 -3.381873
4675 234 1 15.693165 5.082348 -3.300675
4676 234 1 16.663165 5.132485 -3.265763
4677 234 1 17.633165 5.032768 -3.277264
4678 234 1 18.603165 4.978628 -3.246838
4679 234 1 19.573165 5.025037 -3.336508
4680 234 1 20.543165 5.053258 -3.222647
4681 235 1 1.718873 3.218054 3.067695
4682 235 1 2.688873 3.169750 3.084371
4683 235 1 3.658873 3.130185 3.263725
4684 235 1 4.628873 3.313850 3.224815
4685 235 1 5.598873 3.299356 3.106580
4686 235 1 6.568873 3.286234 3.261954
4687 235 1 7.538873 3.272844 3.108144
4688 235 1 8.508873 3.309563 3.187439
4689 235 1 9.478873 3.163820 3.144785
4690 235 1 10.448873 3.312910 3.183909
4691 235 1 11.418873 3.316680 3.247745
4692 235 1 12.388873 3.263899 3.150843
4693 235 1 13.358873 3.236431 3.139093
4694 235 1 14.328873 3.299138 3.067751
4695 235 1 15.298873 3.179131 3.160707
4696 235 1 16.268873 3.241680 3.228288
4697 235 1 17.238873 3.262466 3.080178
4698 235 1 18.208873 3.290570 3.251841
4699 235 1 19.178873 3.282665 3.219755
4700 235 1 20.148873 3.299901 3.117984
4701 236 1 -6.684669 0.217861 -0.896571
4702 236 1 -5.714669 0.226953 -1.035490
4703 236 1 -4.744669 0.075747 -0.940887
4704 236 1 -3.774669 0.170868 -0.968715
4705 236 1 -2.804669 0.090311 -1.007447
4706 236 1 -1.834669 0.069000 -1.034576
4707 236 1 -0.864669 0.110535 -0.874122
4708 236 1 0.105331 0.067338 -0.890140
4709 236 1 1.075331 0.052670 -0.876842
4710 236 1 2.045331 0.185737 -0.842132
4711 236 1 3.015331 0.209521 -0.863764
4712 236 1 3.985331 0.179307 -0.854423
4713 236 1 4.955331 0.162491 -0.902135
4714 236 1 5.925331 0.082856 -0.865522
4715 236 1 6.895331 0.130282 -0.839076
4716 236 1 7.865331 0.184805 -1.021419
4717 236 1 8.835331 0.057098 -0.876284
4718 236 1 9.805331 0.104272 -0.934937
4719 236 1 10.775331 0.147166 -0.970309
4720 236 1 11.745331 0.236660 -0.881671
4721 237 1 -1.907325 -6.606749 -0.677491
4722 237 1 -0.937325 -6.528830 -0.700204
4723 237 1 0.032675 -6.699343 -0.616834
4724 237 1 1.002675 -6.628649 -0.594162
4725 237 1 1.972675 -6.648051 -0.633401
4726 237 1 2.942675 -6.550033 -0.564651
4727 237 1 3.912675 -6.609195 -0.708360
4728 237 1 4.882675 -6.532700 -0.639573
4729 237 1 5.852675 -6.538257 -0.587631
4730 237 1 6.822675 -6.583353 -0.686289
4731 237 1 7.792675 -6.679072 -0.601685
4732 237 1 8.762675 -6.549643 -0.689968
4733 237 1 9.732675 -6.594478 -0.674467
4734 237 1 10.702675 -6.681313 -0.611374
4735 237 1 11.672675 -6.618639 -0.609252
4736 237 1 12.642675 -6.551032 -0.681408
4737 237 1 13.612675 -6.590442 -0.660623
4738 237 1 14.582675 -6.644207 -0.735319
4739 237 1 15.552675 -6.540269 -0.706918
4740 237 1 16.522675 -6.708947 -0.617306
4741 238 1 0.606379 5.662820 -5.514739
4742 238 1 1.576379 5.547642 -5.509408
4743 238 1 2.546379 5.643682 -5.592967
4744 238 1 3.516379 5.598831 -5.608180
4745 238 1 4.486379 5.616831 -5.589978
4746 238 1 5.456379 5.555786 -5.688670
4747 238 1 6.426379 5.573626 -5.535121
4748 238 1 7.396379 5.496666 -5.594506
4749 238 1 8.366379 5.589153 -5.497928
4750 238 1 9.336379 5.581153 -5.662638
4751 238 1 10.306379 5.584247 -5.623388
4752 238 1 11.276379 5.672536 -5.608752
4753 238 1 12.246379 5.500056 -5.666642
4754 238 1 13.216379 5.633768 -5.581622
4755 238 1 14.186379 5.560260 -5.576744
4756 238 1 15.156379 5.499832 -5.553978
4757 238 1 16.126379 5.553365 -5.522031
4758 238 1 17.096379 5.664065 -5.574992
4759 238 1 18.066379 5.671210 -5.541731
4760 238 1 19.036379 5.594538 -5.696554
4761 239 1 -7.134396 -1.404956 -5.299982
4762 239 1 -6.164396 -1.295987 -5.424208
4763 239 1 -5.194396 -1.318109 -5.402919
4764 239 1 -4.224396 -1.342158 -5.395932
4765 239 1 -3.254396 -1.326811 -5.343094
4766 239 1 -2.284396 -1.330746 -5.329654
4767 239 1 -1.314396 -1.412117 -5.276446
4768 239 1 -0.344396 -1.298310 -5.297690
4769 239 1 0.625604 -1.392036 -5.388399
4770 239 1 1.595604 -1.300521 -5.281043
4771 239 1 2.565604 -1.441656 -5.346943
4772 239 1 3.535604 -1.286494 -5.230745
4773 239 1 4.505604 -1.308608 -5.323611
4774 239 1 5.475604 -1.446751 -5.317038
4775 239 1 6.445604 -1.460504 -5.257892
4776 239 1 7.415604 -1.304431 -5.258235
4777 239 1 8.385604 -1.460777 -5.384754
4778 239 1 9.355604 -1.409515 -5.305236
4779 239 1 10.325604 -1.268225 -5.413245
4780 239 1 11.295604 -1.457758 -5.415145
4781 240 1 -1.102081 -8.984951 4.644171
4782 240 1 -0.132081 -8.950217 4.519077
4783 240 1 0.837919 -9.027741 4.572428
4784 240 1 1.807919 -8.974367 4.637611
4785 240 1 2.777919 -8.951341 4.627333
4786 240 1 3.747919 -9.048244 4.568578
4787 240 1 4.717919 -8.985935 4.581672
4788 240 1 5.687919 -9.030387 4.636246
4789 240 1 6.657919 -8.861550 4.649283
4790 240 1 7.627919 -8.991570 4.643588
4791 240 1 8.597919 -8.887526 4.629814
4792 240 1 9.567919 -8.882120 4.598563
4793 240 1 10.537919 -9.002949 4.562553
4794 240 1 11.507919 -8.938195 4.632087
4795 240 1 12.477919 -8.866626 4.662670
4796 240 1 13.447919 -8.939547 4.644897
4797 240 1 14.417919 -8.890320 4.596974
4798 240 1 15.387919 -9.056556 4.646252
4799 240 1 16.357919 -9.059465 4.469320
4800 240 1 17.327919 -9.056144 4.566270
4801 241 1 5.730523 -0.505159 4.818141
4802 241 1 6.700523 -0.601602 4.818492
4803 241 1 7.670523 -0.487568 4.776471
4804 241 1 8.640523 -0.490638 4.807376
4805 241 1 9.610523 -0.486184 4.696196
4806 241 1 10.580523 -0.643332 4.740413
4807 241 1 11.550523 -0.612329 4.826485
4808 241 1 12.520523 -0.475820 4.780266
4809 241 1 13.490523 -0.565388 4.876733
4810 241 1 14.460523 -0.648512 4.808071
4811 241 1 15.430523 -0.606388 4.725887
4812 241 1 16.400523 -0.508436 4.777063
4813 241 1 17.370523 -0.641570 4.702775
4814 241 1 18.340523 -0.646113 4.872279
4815 241 1 19.310523 -0.657138 4.759857
4816 241 1 20.280523 -0.549175 4.701758
4817 241 1 21.250523 -0.493724 4.778169
4818 241 1 22.220523 -0.607405 4.872400
4819 241 1 23.190523 -0.569358 4.790552
4820 241 1 24.160523 -0.478760 4.796314
4821 242 1 3.520556 -8.863120 1.541825
4822 242 1 4.490556 -8.689442 1.580730
4823 242 1 5.460556 -8.819123 1.560388
4824 242 1 6.430556 -8.878415 1.617958
4825 242 1 7.400556 -8.853956 1.613717
4826 242 1 8.370556 -8.884417 1.496253
4827 242 1 9.340556 -8.699015 1.528321
4828 242 1 10.310556 -8.692695 1.657345
4829 242 1 11.280556 -8.690510 1.506184
4830 242 1 12.250556 -8.774365 1.500651
4831 242 1 13.220556 -8.736748 1.599832
4832 242 1 14.190556 -8.818443 1.606646
4833 242 1 15.160556 -8.740053 1.624760
4834 242 1 16.130556 -8.861308 1.603438
4835 242 1 17.100556 -8.775767 1.658988
4836 242 1 18.070556 -8.689622 1.635092
4837 242 1 19.040556 -8.848072 1.601700
4838 242 1 20.010556 -8.687079 1.506292
4839 242 1 20.980556 -8.689543 1.510593
4840 242 1 21.950556 -8.835067 1.493211
4841 243 1 0.343600 0.770134 7.236808
4842 243 1 1.313600 0.788817 7.088173
4843 243 1 2.283600 0.684765 7.109437
4844 243 1 3.253600 0.731966 7.094389
4845 243 1 4.223600 0.778106 7.110402
4846 243 1 5.193600 0.649742 7.147739
4847 243 1 6.163600 0.754216 7.159696
4848 243 1 7.133600 0.810331 7.227355
4849 243 1 8.103600 0.828058 7.247617
4850 243 1 9.073600 0.818560 7.102238
4851 243 1 10.043600 0.693379 7.124148
4852 243 1 11.013600 0.713243 7.229384
4853 243 1 11.983600 0.791541 7.106894
4854 243 1 12.953600 0.653076 7.196618
4855 243 1 13.923600 0.772295 7.092774
4856 243 1 14.893600 0.744850 7.175580
4857 243 1 15.863600 0.801104 7.145139
4858 243 1 16.833600 0.737796 7.154687
4859 243 1 17.803600 0.808343 7.210933
4860 243 1 18.773600 0.646752 7.238113
4861 244 1 -0.770953 -6.390086 3.298670
4862 244 1 0.199047 -6.531588 3.246711
4863 244 1 1.169047 -6.385894 3.330273
4864 244 1 2.139047 -6.405708 3.242440
4865 244 1 3.109047 -6.412408 3.172058
4866 244 1 4.079047 -6.495876 3.152277
4867 244 1 5.049047 -6.433806 3.208520
4868 244 1 6.019047 -6.419627 3.284755
4869 244 1 6.989047 -6.470522 3.321927
4870 244 1 7.959047 -6.494346 3.240823
4871 244 1 8.929047 -6.539282 3.347324
4872 244 1 9.899047 -6.534093 3.314166
4873 244 1 10.869047 -6.459216 3.273300
4874 244 1 11.839047 -6.362909 3.169487
4875 244 1 12.809047 -6.372338 3.299660
4876 244 1 13.779047 -6.494879 3.311567
4877 244 1 14.749047 -6.428511 3.309487
4878 244 1 15.719047 -6.509673 3.289815
4879 244 1 16.689047 -6.427132 3.290076
4880 244 1 17.659047 -6.491409 3.339205
4881 245 1 7.019378 -7.458522 -4.157381
4882 245 1 7.989378 -7.515057 -4.101272
4883 245 1 8.959378 -7.563217 -4.129525
4884 245 1 9.929378 -7.475500 -4.067892
4885 245 1 10.899378 -7.501490 -4.103157
4886 245 1 11.869378 -7.471770 -4.002123
4887 245 1 12.839378 -7.553222 -3.985430
4888 245 1 13.809378 -7.399046 -4.155971
4889 245 1 14.779378 -7.486423 -4.009576
4890 245 1 15.749378 -7.409580 -4.163425
4891 245 1 16.719378 -7.428149 -4.054286
4892 245 1 17.689378 -7.419375 -4.160882
4893 245 1 18.659378 -7.514930 -4.087975
4894 245 1 19.629378 -7.499184 -4.041086
4895 245 1 20.599378 -7.547781 -4.029608
4896 245 1 21.569378 -7.530426 -4.135206
4897 245 1 22.539378 -7.401390 -4.007371
4898 245 1 23.509378 -7.401202 -4.092590
4899 245 1 24.479378 -7.508531 -4.148007
4900 245 1 25.449378 -7.447498 -4.076555
4901 246 1 2.724898 4.385340 9.843558
4902 246 1 3.694898 4.266408 9.849837
4903 246 1 4.664898 4.414183 9.838261
4904 246 1 5.634898 4.300085 9.688915
4905 246 1 6.604898 4.291018 9.854608
4906 246 1 7.574898 4.400926 9.839657
4907 246 1 8.544898 4.268666 9.811525
4908 246 1 9.514898 4.296898 9.671340
4909 246 1 10.484898 4.282669 9.841168
4910 246 1 11.454898 4.378557 9.808188
4911 246 1 12.424898 4.276761 9.782886
4912 246 1 13.394898 4.367827 9.682837
4913 246 1 14.364898 4.445106 9.852166
4914 246 1 15.334898 4.318968 9.726799
4915 246 1 16.304898 4.353296 9.757591
4916 246 1 17.274898 4.276857 9.798429
4917 246 1 18.244898 4.306366 9.685712
4918 246 1 19.214898 4.256062 9.776652
4919 246 1 20.184898 4.303686 9.741352
4920 246 1 21.154898 4.323398 9.815488
4921 247 1 1.345933 -3.175600 -7.792902
4922 247 1 2.315933 -3.127679 -7.831628
4923 247 1 3.285933 -3.111781 -7.930666
4924 247 1 4.255933 -3.152869 -7.972293
4925 247 1 5.225933 -3.066251 -7.809199
4926 247 1 6.195933 -3.047742 -7.838523
4927 247 1 7.165933 -3.075199 -7.904952
4928 247 1 8.135933 -3.131676 -7.944741
4929 247 1 9.105933 -3.235260 -7.828097
4930 247 1 10.075933 -3.150360 -7.912846
4931 247 1 11.045933 -3.147926 -7.906699
4932 247 1 12.015933 -3.112423 -7.824304
4933 247 1 12.985933 -3.115284 -7.941109
4934 247 1 13.955933 -3.149885 -7.841514
4935 247 1 14.925933 -3.098085 -7.803526
4936 247 1 15.895933 -3.198035 -7.964011
4937 247 1 16.865933 -3.238159 -7.961127
4938 247 1 17.835933 -3.061968 -7.945594
4939 247 1 18.805933 -3.164085 -7.952766
4940 247 1 19.775933 -3.239768 -7.959323
4941 248 1 8.114176 5.131841 -0.242928
4942 248 1 9.084176 5.228764 -0.278084
4943 248 1 10.054176 5.124026 -0.279840
4944 248 1 11.024176 5.117435 -0.280941
4945 248 1 11.994176 5.100281 -0.278169
4946 248 1 12.964176 5.077792 -0.332878
4947 248 1 13.934176 5.127395 -0.340903
4948 248 1 14.904176 5.128759 -0.297529
4949 248 1 15.874176 5.250709 -0.216116
4950 248 1 16.844176 5.176730 -0.237563
4951 248 1 17.814176 5.221396 -0.274966
4952 248 1 18.784176 5.126641 -0.217390
4953 248 1 19.754176 5.190020 -0.189704
4954 248 1 20.724176 5.099553 -0.181094
4955 248 1 21.694176 5.133854 -0.340191
4956 248 1 22.664176 5.249909 -0.233800
4957 248 1 23.634176 5.153692 -0.312641
4958 248 1 24.604176 5.079204 -0.160259
4959 248 1 25.574176 5.116446 -0.288732
4960 248 1 26.544176 5.089909 -0.334877
4961 249 1 -0.539292 -2.350729 -8.407778
4962 249 1 0.430708 -2.352762 -8.374342
4963 249 1 1.400708 -2.476639 -8.468303
4964 249 1 2.370708 -2.376054 -8.500388
4965 249 1 3.340708 -2.325337 -8.346935
4966 249 1 4.310708 -2.340939 -8.449660
4967 249 1 5.280708 -2.305893 -8.507464
4968 249 1 6.250708 -2.447584 -8.355234
4969 249 1 7.220708 -2.464618 -8.440764
4970 249 1 8.190708 -2.405018 -8.445636
4971 249 1 9.160708 -2.342755 -8.472802
4972 249 1 10.130708 -2.362334 -8.334980
4973 249 1 11.100708 -2.409534 -8.489470
4974 249 1 12.070708 -2.487404 -8.418361
4975 249 1 13.040708 -2.362564 -8.436257
4976 249 1 14.010708 -2.465851 -8.311106
4977 249 1 14.980708 -2.452067 -8.401655
4978 249 1 15.950708 -2.482674 -8.315623
4979 249 1 16.920708 -2.305005 -8.382112
4980 249 1 17.890708 -2.362992 -8.481819
4981 250 1 7.524134 -9.005807 -7.090058
4982 250 1 8.494134 -8.931922 -7.106168
4983 250 1 9.464134 -9.034057 -6.947014
4984 250 1 10.434134 -9.051285 -6.980222
4985 250 1 11.404134 -8.961952 -7.080314
4986 250 1 12.374134 -8.998487 -6.954884
4987 250 1 13.344134 -9.003421 -6.952288
4988 250 1 14.314134 -8.934226 -7.102997
4989 250 1 15.284134 -9.058168 -7.038054
4990 250 1 16.254134 -8.912717 -6.949792
4991 250 1 17.224134 -9.038028 -7.083750
4992 250 1 18.194134 -9.105363 -7.053478
4993 250 1 19.164134 -9.009487 -7.030160
4994 250 1 20.134134 -8.942677 -7.094909
4995 250 1 21.104134 -8.939053 -7.034633
4996 250 1 22.074134 -9.023661 -7.049453
4997 250 1 23.044134 -9.002272 -7.115815
4998 250 1 24.014134 -8.961818 -7.106336
4999 250 1 24.984134 -9.061700 -7.092438
5000 250 1 25.954134 -9.047191 -6.976081
5001 251 1 3.006801 -3.421147 2.943948
5002 251 1 3.976801 -3.309237 2.962429
5003 251 1 4.946801 -3.373758 2.807386
5004 251 1 5.916801 -3.366789 2.976859
5005 251 1 6.886801 -3.374791 2.896595
5006 251 1 7.856801 -3.379835 2.989091
5007 251 1 8.826801 -3.259086 2.974951
5008 251 1 9.796801 -3.309500 2.946698
5009 251 1 10.766801 -3.445398 2.951856
5010 251 1 11.736801 -3.262118 2.983453
5011 251 1 12.706801 -3.255671 2.932780
5012 251 1 13.676801 -3.373862 2.823454
5013 251 1 14.646801 -3.402619 2.926871
5014 251 1 15.616801 -3.446346 2.939506
5015 251 1 16.586801 -3.431795 2.895838
5016 251 1 17.556801 -3.437593 2.988498
5017 251 1 18.526801 -3.318392 2.833774
5018 251 1 19.496801 -3.390917 2.822058
5019 251 1 20.466801 -3.337318 2.967472
5020 251 1 21.436801 -3.377992 2.987300
5021 252 1 -3.978884 -6.978209 -1.896122
5022 252 1 -3.008884 -6.971563 -1.898961
5023 252 1 -2.038884 -6.899716 -1.939295
5024 252 1 -1.068884 -6.936905 -1.871190
5025 252 1 -0.098884 -7.043581 -1.772812
5026 252 1 0.871116 -6.887386 -1.811291
5027 252 1 1.841116 -7.011995 -1.848943
5028 252 1 2.811116 -6.952413 -1.953344
5029 252 1 3.781116 -7.024642 -1.899990
5030 252 1 4.751116 -6.964518 -1.799274
5031 252 1 5.721116 -7.064478 -1.947335
5032 252 1 6.691116 -7.050595 -1.941734
5033 252 1 7.661116 -6.997812 -1.873715
5034 252 1 8.631116 -6.945932 -1.965984
5035 252 1 9.601116 -6.887217 -1.878767
5036 252 1 10.571116 -7.048044 -1.943244
5037 252 1 11.541116 -6.965908 -1.899559
5038 252 1 12.511116 -6.936365 -1.774719
5039 252 1 13.481116 -7.084009 -1.957121
5040 252 1 14.451116 -6.939660 -1.924503
5041 253 1 9.190177 -9.088879 5.335152
5042 253 1 10.160177 -9.111265 5.185655
5043 253 1 11.130177 -9.099494 5.356753
5044 253 1 12.100177 -9.182296 5.290013
5045 253 1 13.070177 -9.089586 5.350446
5046 253 1 14.040177 -9.103253 5.282518
5047 253 1 15.010177 -9.156746 5.331949
5048 253 1 15.980177 -9.222053 5.269211
5049 253 1 16.950177 -9.214827 5.193723
5050 253 1 17.920177 -9.078333 5.329204
5051 253 1 18.890177 -9.105642 5.225775
5052 253 1 19.860177 -9.076444 5.234094
5053 253 1 20.830177 -9.261968 5.330782
5054 253 1 21.800177 -9.135380 5.348907
5055 253 1 22.770177 -9.152707 5.268909
5056 253 1 23.740177 -9.157666 5.307268
5057 253 1 24.710177 -9.251426 5.197051
5058 253 1 25.680177 -9.158139 5.259511
5059 253 1 26.650177 -9.250633 5.193919
5060 253 1 27.620177 -9.135241 5.374650
5061 254 1 -6.896790 9.317402 1.814420
5062 254 1 -5.926790 9.327727 1.716936
5063 254 1 -4.956790 9.298865 1.807417
5064 254 1 -3.986790 9.316914 1.741214
5065 254 1 -3.016790 9.323334 1.727121
5066 254 1 -2.046790 9.341154 1.721974
5067 254 1 -1.076790 9.331812 1.764057
5068 254 1 -0.106790 9.295283 1.787924
5069 254 1 0.863210 9.382936 1.752319
5070 254 1 1.833210 9.280934 1.716352
5071 254 1 2.803210 9.328005 1.834468
5072 254 1 3.773210 9.331744 1.726139
5073 254 1 4.743210 9.203804 1.696072
5074 254 1 5.713210 9.260940 1.770426
5075 254 1 6.683210 9.232809 1.835518
5076 254 1 7.653210 9.208837 1.802274
5077 254 1 8.623210 9.298426 1.719485
5078 254 1 9.593210 9.330040 1.677354
5079 254 1 10.563210 9.365248 1.780741
5080 254 1 11.533210 9.202291 1.831418
5081 255 1 3.912099 5.267302 4.312468
5082 255 1 4.882099 5.285461 4.295554
5083 255 1 5.852099 5.313002 4.225858
5084 255 1 6.822099 5.379657 4.190530
5085 255 1 7.792099 5.347300 4.237019
5086 255 1 8.762099 5.279532 4.174587
5087 255 1 9.732099 5.313544 4.160955
5088 255 1 10.702099 5.320161 4.180932
5089 255 1 11.672099 5.374377 4.185754
5090 255 1 12.642099 5.394693 4.278776
5091 255 1 13.612099 5.386636 4.197812
5092 255 1 14.582099 5.408601 4.167909
5093 255 1 15.552099 5.319246 4.235229
5094 255 1 16.522099 5.354826 4.315541
5095 255 1 17.492099 5.294428 4.282749
5096 255 1 18.462099 5.253147 4.234777
5097 255 1 19.432099 5.355909 4.216946
5098 255 1 20.402099 5.329819 4.307504
5099 255 1 21.372099 5.223779 4.272744
5100 255 1 22.342099 5.319173 4.215938
5101 256 1 3.275387 -6.303375 3.666245
5102 256 1 4.245387 -6.185624 3.622105
5103 256 1 5.215387 -6.250469 3.640213
5104 256 1 6.185387 -6.119597 3.730648
5105 256 1 7.155387 -6.288306 3.579219
5106 256 1 8.125387 -6.270782 3.548905
5107 256 1 9.095387 -6.285577 3.616858
5108 256 1 10.065387 -6.313783 3.652617
5109 256 1 11.035387 -6.157186 3.566688
5110 256 1 12.005387 -6.175210 3.661433
5111 256 1 12.975387 -6.271941 3.658981
5112 256 1 13.945387 -6.203650 3.577470
5113 256 1 14.915387 -6.186050 3.655401
5114 256 1 15.885387 -6.291083 3.648810
5115 256 1 16.855387 -6.283917 3.594763
5116 256 1 17.825387 -6.133939 3.561167
5117 256 1 18.795387 -6.301754 3.679389
5118 256 1 19.765387 -6.169638 3.688708
5119 256 1 20.735387 -6.178776 3.585341
5120 256 1 21.705387 -6.311934 3.560403
5121 257 1 -1.624390 5.135878 7.936562
5122 257 1 -0.654390 5.125875 7.798446
5123 257 1 0.315610 5.160163 7.888800
5124 257 1 1.285610 5.182293 7.924546
5125 257 1 2.255610 5.077083 7.960050
5126 257 1 3.225610 5.115371 7.962848
5127 257 1 4.195610 5.236973 7.924158
5128 257 1 5.165610 5.219719 7.928622
5129 257 1 6.135610 5.131570 7.954744
5130 257 1 7.105610 5.113051 7.784868
5131 257 1 8.075610 5.166478 7.912791
5132 257 1 9.045610 5.120152 7.809334
5133 257 1 10.015610 5.136839 7.836560
5134 257 1 10.985610 5.077116 7.856824
5135 257 1 11.955610 5.152715 7.813746
5136 257 1 12.925610 5.228580 7.879038
5137 257 1 13.895610 5.080650 7.855580
5138 257 1 14.865610 5.210035 7.805754
5139 257 1 15.835610 5.105189 7.904854
5140 257 1 16.805610 5.247607 7.916506
5141 258 1 -9.530103 -1.545323 7.903344
5142 258 1 -8.560103 -1.543967 7.971519
5143 258 1 -7.590103 -1.507198 7.800591
5144 258 1 -6.620103 -1.451216 7.831259
5145 258 1 -5.650103 -1.503676 7.978672
5146 258 1 -4.680103 -1.421773 7.979287
5147 258 1 -3.710103 -1.557070 7.973467
5148 258 1 -2.740103 -1.551445 7.840269
5149 258 1 -1.770103 -1.525275 7.805925
5150 258 1 -0.800103 -1.579618 7.883206
5151 258 1 0.169897 -1.473352 7.878247
5152 258 1 1.139897 -1.416357 7.849571
5153 258 1 2.109897 -1.543086 7.844396
5154 258 1 3.079897 -1.454251 7.908737
5155 258 1 4.049897 -1.465222 7.899693
5156 258 1 5.019897 -1.577340 7.881342
5157 258 1 5.989897 -1.403728 7.859404
5158 258 1 6.959897 -1.483484 7.986106
5159 258 1 7.929897 -1.504505 7.836138
5160 258 1 8.899897 -1.477932 7.876064
5161 259 1 -7.463738 2.354625 6.765879
5162 259 1 -6.493738 2.432171 6.746170
5163 259 1 -5.523738 2.299962 6.794884
5164 259 1 -4.553738 2.269084 6.779529
5165 259 1 -3.583738 2.399788 6.785702
5166 259 1 -2.613738 2.393600 6.834940
5167 259 1 -1.643738 2.333410 6.791221
5168 259 1 -0.673738 2.409689 6.809506
5169 259 1 0.296262 2.387482 6.829680
5170 259 1 1.266262 2.264732 6.893509
5171 259 1 2.236262 2.417351 6.853470
5172 259 1 3.206262 2.298340 6.759954
5173 259 1 4.176262 2.407526 6.728032
5174 259 1 5.146262 2.422925 6.776975
5175 259 1 6.116262 2.422935 6.770651
5176 259 1 7.086262 2.268359 6.777283
5177 259 1 8.056262 2.345576 6.837090
5178 259 1 9.026262 2.335742 6.848314
5179 259 1 9.996262 2.250874 6.899407
5180 259 1 10.966262 2.348453 6.747464
5181 260 1 2.427475 5.209008 -2.173428
5182 260 1 3.397475 5.354352 -2.233420
5183 260 1 4.367475 5.330269 -2.186164
5184 260 1 5.337475 5.401948 -2.118830
5185 260 1 6.307475 5.361535 -2.248948
5186 260 1 7.277475 5.286856 -2.162359
5187 260 1 8.247475 5.370701 -2.149455
5188 260 1 9.217475 5.374581 -2.132183
5189 260 1 10.187475 5.384096 -2.219787
5190 260 1 11.157475 5.249885 -2.232934
5191 260 1 12.127475 5.277487 -2.092743
5192 260 1 13.097475 5.234143 -2.265657
5193 260 1 14.067475 5.314575 -2.229905
5194 260 1 15.037475 5.320507 -2.128547
5195 260 1 16.007475 5.270261 -2.117250
5196 260 1 16.977475 5.335252 -2.177057
5197 260 1 17.947475 5.323827 -2.247907
5198 260 1 18.917475 5.245433 -2.103121
5199 260 1 19.887475 5.377674 -2.191484
5200 260 1 20.857475 5.267110 -2.156792
5201 261 1 -4.463209 -9.342324 0.433830
5202 261 1 -3.493209 -9.230457 0.452426
5203 261 1 -2.523209 -9.302624 0.544019
5204 261 1 -1.553209 -9.315924 0.598747
5205 261 1 -0.583209 -9.187093 0.560131
5206 261 1 0.386791 -9.299647 0.562708
5207 261 1 1.356791 -9.254935 0.543542
5208 261 1 2.326791 -9.196586 0.510800
5209 261 1 3.296791 -9.352479 0.489546
5210 261 1 4.266791 -9.261774 0.594044
5211 261 1 5.236791 -9.293478 0.453857
5212 261 1 6.206791 -9.356075 0.553118
5213 261 1 7.176791 -9.308927 0.563401
5214 261 1 8.146791 -9.300667 0.571376
5215 261 1 9.116791 -9.258157 0.456213
5216 261 1 10.086791 -9.260407 0.528045
5217 261 1 11.056791 -9.255302 0.582627
5218 261 1 12.026791 -9.186404 0.590509
5219 261 1 12.996791 -9.261516 0.443111
5220 261 1 13.966791 -9.303790 0.600913
5221 262 1 0.542705 -5.879894 -1.254087
5222 262 1 1.512705 -5.838343 -1.375439
5223 262 1 2.482705 -5.974003 -1.275526
5224 262 1 3.452705 -5.941862 -1.248762
5225 262 1 4.422705 -5.884333 -1.328371
5226 262 1 5.392705 -5.980514 -1.282080
5227 262 1 6.362705 -5.850831 -1.385952
5228 262 1 7.332705 -5.848769 -1.419245
5229 262 1 8.302705 -5.855740 -1.398448
5230 262 1 9.272705 -5.883106 -1.380281
5231 262 1 10.242705 -5.969927 -1.272107
5232 262 1 11.212705 -5.799363 -1.382773
5233 262 1 12.182705 -5.936712 -1.300187
5234 262 1 13.152705 -5.846846 -1.418330
5235 262 1 14.122705 -5.801642 -1.368811
5236 262 1 15.092705 -5.962881 -1.284727
5237 262 1 16.062705 -5.982913 -1.346443
5238 262 1 17.032705 -5.963935 -1.316870
5239 262 1 18.002705 -5.984565 -1.427300
5240 262 1 18.972705 -5.914050 -1.276664
5241 263 1 -1.583928 -9.874280 -4.341690
5242 263 1 -0.613928 -9.864785 -4.232373
5243 263 1 0.356072 -9.826179 -4.331600
5244 263 1 1.326072 -9.849682 -4.373841
5245 263 1 2.296072 -9.887009 -4.279808
5246 263 1 3.266072 -9.885314 -4.384533
5247 263 1 4.236072 -9.860587 -4.332276
5248 263 1 5.206072 -9.852498 -4.415120
5249 263 1 6.176072 -9.868246 -4.352922
5250 263 1 7.146072 -9.704664 -4.339160
5251 263 1 8.116072 -9.723496 -4.274805
5252 263 1 9.086072 -9.734505 -4.418600
5253 263 1 10.056072 -9.781779 -4.247362
5254 263 1 11.026072 -9.788855 -4.414895
5255 263 1 11.996072 -9.732761 -4.419123
5256 263 1 12.966072 -9.876478 -4.252571
5257 263 1 13.936072 -9.831712 -4.229582
5258 263 1 14.906072 -9.722709 -4.393290
5259 263 1 15.876072 -9.879265 -4.324982
5260 263 1 16.846072 -9.854701 -4.268407
5261 264 1 6.324030 -3.220488 -4.510119
5262 264 1 7.294030 -3.254362 -4.613002
5263 264 1 8.264030 -3.210907 -4.488605
5264 264 1 9.234030 -3.300740 -4.654417
5265 264 1 10.204030 -3.285311 -4.520971
5266 264 1 11.174030 -3.263486 -4.572510
5267 264 1 12.144030 -3.353953 -4.605672
5268 264 1 13.114030 -3.271515 -4.475463
5269 264 1 14.084030 -3.238786 -4.465489
5270 264 1 15.054030 -3.355795 -4.631523
5271 264 1 16.024030 -3.317374 -4.623391
5272 264 1 16.994030 -3.243370 -4.527964
5273 264 1 17.964030 -3.270048 -4.622365
5274 264 1 18.934030 -3.320574 -4.578075
5275 264 1 19.904030 -3.302651 -4.566126
5276 264 1 20.874030 -3.260055 -4.615238
5277 264 1 21.844030 -3.400860 -4.571535
5278 264 1 22.814030 -3.409894 -4.652081
5279 264 1 23.784030 -3.305136 -4.583500
5280 264 1 24.754030 -3.237860 -4.529449
5281 265 1 9.527599 1.714851 -1.508299
5282 265 1 10.497599 1.657508 -1.458605
5283 265 1 11.467599 1.790030 -1.349199
5284 265 1 12.437599 1.844996 -1.312942
5285 265 1 13.407599 1.797819 -1.394667
5286 265 1 14.377599 1.788662 -1.353292
5287 265 1 15.347599 1.693285 -1.473203
5288 265 1 16.317599 1.843929 -1.444511
5289 265 1 17.287599 1.843613 -1.401647
5290 265 1 18.257599 1.718303 -1.314983
5291 265 1 19.227599 1.731186 -1.355420
5292 265 1 20.197599 1.723402 -1.406058
5293 265 1 21.167599 1.820285 -1.359187
5294 265 1 22.137599 1.687514 -1.406749
5295 265 1 23.107599 1.695702 -1.466428
5296 265 1 24.077599 1.777760 -1.446612
5297 265 1 25.047599 1.830447 -1.500640
5298 265 1 26.017599 1.702892 -1.485721
5299 265 1 26.987599 1.746321 -1.383719
5300 265 1 27.957599 1.651487 -1.509137
5301 266 1 9.297529 4.887736 9.180150
5302 266 1 10.267529 4.805589 9.174189
5303 266 1 11.237529 4.832835 9.255896
5304 266 1 12.207529 4.830650 9.266136
5305 266 1 13.177529 4.813117 9.080748
5306 266 1 14.147529 4.830745 9.093900
5307 266 1 15.117529 4.883461 9.093597
5308 266 1 16.087529 4.858915 9.232122
5309 266 1 17.057529 4.820901 9.110408
5310 266 1 18.027529 4.748459 9.150424
5311 266 1 18.997529 4.882534 9.160430
5312 266 1 19.967529 4.931652 9.095539
5313 266 1 20.937529 4.784348 9.090773
5314 266 1 21.907529 4.917062 9.111847
5315 266 1 22.877529 4.823035 9.111559
5316 266 1 23.847529 4.835305 9.084885
5317 266 1 24.817529 4.930926 9.233482
5318 266 1 25.787529 4.910287 9.271436
5319 266 1 26.757529 4.876810 9.208207
5320 266 1 27.727529 4.844059 9.219968
5321 267 1 -4.763563 -4.447355 -0.936926
5322 267 1 -3.793563 -4.475378 -0.766228
5323 267 1 -2.823563 -4.467002 -0.908711
5324 267 1 -1.853563 -4.475521 -0.892374
5325 267 1 -0.883563 -4.542790 -0.764737
5326 267 1 0.086437 -4.393921 -0.847515
5327 267 1 1.056437 -4.398042 -0.784089
5328 267 1 2.026437 -4.384604 -0.798173
5329 267 1 2.996437 -4.416795 -0.900818
5330 267 1 3.966437 -4.557927 -0.797314
5331 267 1 4.936437 -4.488787 -0.766758
5332 267 1 5.906437 -4.556011 -0.931390
5333 267 1 6.876437 -4.454758 -0.757166
5334 267 1 7.846437 -4.523073 -0.769504
5335 267 1 8.816437 -4.489966 -0.863801
5336 267 1 9.786437 -4.452933 -0.772845
5337 267 1 10.756437 -4.412281 -0.948097
5338 267 1 11.726437 -4.399501 -0.775076
5339 267 1 12.696437 -4.485474 -0.911694
5340 267 1 13.666437 -4.492944 -0.895689
5341 268 1 4.644367 -8.014756 8.906355
5342 268 1 5.614367 -8.077693 8.913090
5343 268 1 6.584367 -7.978846 9.033276
5344 268 1 7.554367 -7.948889 9.014086
5345 268 1 8.524367 -7.938009 8.970757
5346 268 1 9.494367 -7.978983 9.012135
5347 268 1 10.464367 -7.935308 8.955896
5348 268 1 11.434367 -7.916538 8.968981
5349 268 1 12.404367 -7.960637 9.038013
5350 268 1 13.374367 -7.911758 8.975811
5351 268 1 14.344367 -8.008480 9.066150
5352 268 1 15.314367 -7.966473 8.920316
5353 268 1 16.284367 -8.074237 8.935453
5354 268 1 17.254367 -7.966151 8.906352
5355 268 1 18.224367 -8.017013 8.986667
5356 268 1 19.194367 -7.978798 8.924183
5357 268 1 20.164367 -7.905343 8.892843
5358 268 1 21.134367 -7.918600 9.003393
5359 268 1 22.104367 -8.038874 8.924132
5360 268 1 23.074367 -8.022216 8.954103
5361 269 1 7.181523 -1.865415 4.110280
5362 269 1 8.151523 -1.831478 4.141444
5363 269 1 9.121523 -1.834529 4.221970
5364 269 1 10.091523 -1.955954 4.134317
5365 269 1 11.061523 -1.840087 4.132448
5366 269 1 12.031523 -1.915366 4.213456
5367 269 1 13.001523 -1.921251 4.170920
5368 269 1 13.971523 -1.816434 4.121531
5369 269 1 14.941523 -1.917327 4.252005
5370 269 1 15.911523 -1.874674 4.262868
5371 269 1 16.881523 -1.799054 4.248241
5372 269 1 17.851523 -1.879348 4.132601
5373 269 1 18.821523 -1.950785 4.103487
5374 269 1 19.791523 -1.852711 4.262779
5375 269 1 20.761523 -1.953059 4.197326
5376 269 1 21.731523 -1.872018 4.171461
5377 269 1 22.701523 -1.930870 4.254379
5378 269 1 23.671523 -1.915827 4.210362
5379 269 1 24.641523 -1.812873 4.114143
5380 269 1 25.611523 -1.881409 4.206122
5381 270 1 -3.078210 -6.592929 -4.086466
5382 270 1 -2.108210 -6.609510 -4.052935
5383 270 1 -1.138210 -6.542612 -4.154596
5384 270 1 -0.168210 -6.558016 -4.017842
5385 270 1 0.801790 -6.643407 -4.076642
5386 270 1 1.771790 -6.641808 -3.986834
5387 270 1 2.741790 -6.578203 -4.015952
5388 270 1 3.711790 -6.684071 -3.971081
5389 270 1 4.681790 -6.635820 -3.984461
5390 270 1 5.651790 -6.557088 -4.060504
5391 270 1 6.621790 -6.539868 -4.003755
5392 270 1 7.591790 -6.655555 -3.986780
5393 270 1 8.561790 -6.662318 -4.139505
5394 270 1 9.531790 -6.679979 -4.075573
5395 270 1 10.501790 -6.699901 -4.158785
5396 270 1 11.471790 -6.716173 -4.018658
5397 270 1 12.441790 -6.716610 -4.098989
5398 270 1 13.411790 -6.661536 -3.987284
5399 270 1 14.381790 -6.571452 -4.140522
5400 270 1 15.351790 -6.703496 -4.042660
5401 271 1 5.602486 2.946835 8.664447
5402 271 1 6.572486 2.943346 8.672669
5403 271 1 7.542486 2.983461 8.682506
5404 271 1 8.512486 2.996489 8.603910
5405 271 1 9.482486 3.085304 8.599304
5406 271 1 10.452486 2.985604 8.560185
5407 271 1 11.422486 3.000781 8.632020
5408 271 1 12.392486 2.901903 8.616267
5409 271 1 13.362486 2.940778 8.729019
5410 271 1 14.332486 2.952347 8.601442
5411 271 1 15.302486 2.906792 8.687685
5412 271 1 16.272486 2.964528 8.555804
5413 271 1 17.242486 2.990699 8.542550
5414 271 1 18.212486 2.922039 8.722912
5415 271 1 19.182486 2.940004 8.585597
5416 271 1 20.152486 2.958679 8.587288
5417 271 1 21.122486 2.921267 8.538460
5418 271 1 22.092486 3.078548 8.559860
5419 271 1 23.062486 2.971721 8.579027
5420 271 1 24.032486 3.003125 8.581897
5421 272 1 -6.864457 -8.405167 3.250343
5422 272 1 -5.894457 -8.395333 3.260779
5423 272 1 -4.924457 -8.503016 3.285788
5424 272 1 -3.954457 -8.333532 3.381284
5425 272 1 -2.984457 -8.403303 3.241476
5426 272 1 -2.014457 -8.434556 3.326491
5427 272 1 -1.044457 -8.369499 3.338761
5428 272 1 -0.074457 -8.484287 3.319240
5429 272 1 0.895543 -8.461108 3.364189
5430 272 1 1.865543 -8.344553 3.344602
5431 272 1 2.835543 -8.394951 3.391750
5432 272 1 3.805543 -8.374395 3.370897
5433 272 1 4.775543 -8.400501 3.282087
5434 272 1 5.745543 -8.486846 3.338531
5435 272 1 6.715543 -8.466167 3.312311
5436 272 1 7.685543 -8.357137 3.215761
5437 272 1 8.655543 -8.445892 3.219878
5438 272 1 9.625543 -8.465585 3.238425
5439 272 1 10.595543 -8.440624 3.403719
5440 272 1 11.565543 -8.485209 3.383222
5441 273 1 -5.122229 7.727014 -4.428563
5442 273 1 -4.152229 7.735611 -4.398901
5443 273 1 -3.182229 7.793735 -4.407658
5444 273 1 -2.212229 7.824878 -4.481404
5445 273 1 -1.242229 7.771272 -4.538258
5446 273 1 -0.272229 7.780536 -4.503133
5447 273 1 0.697771 7.723809 -4.353914
5448 273 1 1.667771 7.899016 -4.530033
5449 273 1 2.637771 7.869431 -4.432816
5450 273 1 3.607771 7.900601 -4.361358
5451 273 1 4.577771 7.750624 -4.480452
5452 273 1 5.547771 7.779536 -4.507540
5453 273 1 6.517771 7.894770 -4.439883
5454 273 1 7.487771 7.783682 -4.453850
5455 273 1 8.457771 7.739290 -4.393465
5456 273 1 9.427771 7.878402 -4.513841
5457 273 1 10.397771 7.862806 -4.503580
5458 273 1 11.367771 7.906630 -4.387656
5459 273 1 12.337771 7.776552 -4.426366
5460 273 1 13.307771 7.749758 -4.430523
5461 274 1 -9.017372 5.163582 4.474472
5462 274 1 -8.047372 5.128467 4.485521
5463 274 1 -7.077372 5.268982 4.530724
5464 274 1 -6.107372 5.157433 4.487203
5465 274 1 -5.137372 5.229372 4.601799
5466 274 1 -4.167372 5.238575 4.620315
5467 274 1 -3.197372 5.275898 4.537697
5468 274 1 -2.227372 5.138580 4.490333
5469 274 1 -1.257372 5.296048 4.602805
5470 274 1 -0.287372 5.183916 4.622080
5471 274 1 0.682628 5.279832 4.593480
5472 274 1 1.652628 5.183870 4.576339
5473 274 1 2.622628 5.103551 4.585024
5474 274 1 3.592628 5.233143 4.626735
5475 274 1 4.562628 5.207699 4.495389
5476 274 1 5.532628 5.284098 4.585303
5477 274 1 6.502628 5.229136 4.608024
5478 274 1 7.472628 5.274378 4.487027
5479 274 1 8.442628 5.138098 4.512632
5480 274 1 9.412628 5.175166 4.460796
5481 275 1 4.136444 -9.127511 -8.196871
5482 275 1 5.106444 -9.064706 -8.117531
5483 275 1 6.076444 -9.055686 -8.204320
5484 275 1 7.046444 -9.046221 -8.073346
5485 275 1 8.016444 -9.104816 -8.081639
5486 275 1 8.986444 -9.166695 -8.077514
5487 275 1 9.956444 -9.092771 -8.117105
5488 275 1 10.926444 -9.168143 -8.210626
5489 275 1 11.896444 -9.141064 -8.185350
5490 275 1 12.866444 -9.094303 -8.066517
5491 275 1 13.836444 -9.085715 -8.131856
5492 275 1 14.806444 -9.155878 -8.200453
5493 275 1 15.776444 -9.163945 -8.220937
5494 275 1 16.746444 -9.067959 -8.108304
5495 275 1 17.716444 -9.137631 -8.249597
5496 275 1 18.686444 -9.203000 -8.139649
5497 275 1 19.656444 -9.071376 -8.174820
5498 275 1 20.626444 -9.088755 -8.223507
5499 275 1 21.596444 -9.206287 -8.075445
5500 275 1 22.566444 -9.160513 -8.260221
5501 276 1 2.629146 5.256625 -0.403816
5502 276 1 3.599146 5.180255 -0.302055
5503 276 1 4.569146 5.299795 -0.402489
5504 276 1 5.539146 5.216728 -0.464730
5505 276 1 6.509146 5.336259 -0.285496
5506 276 1 7.479146 5.190125 -0.341864
5507 276 1 8.449146 5.308980 -0.284909
5508 276 1 9.419146 5.248871 -0.340331
5509 276 1 10.389146 5.309631 -0.416468
5510 276 1 11.359146 5.212475 -0.357715
5511 276 1 12.329146 5.211187 -0.327882
5512 276 1 13.299146 5.190401 -0.387152
5513 276 1 14.269146 5.273820 -0.327531
5514 276 1 15.239146 5.377993 -0.295732
5515 276 1 16.209146 5.325703 -0.406899
5516 276 1 17.179146 5.220052 -0.381345
5517 276 1 18.149146 5.295939 -0.378240
5518 276 1 19.119146 5.314630 -0.442560
5519 276 1 20.089146 5.245494 -0.368587
5520 276 1 21.059146 5.256945 -0.297715
5521 277 1 4.508382 -1.021908 -9.706201
5522 277 1 5.478382 -0.937596 -9.743069
5523 277 1 6.448382 -0.916096 -9.679347
5524 277 1 7.418382 -0.937777 -9.792520
5525 277 1 8.388382 -0.994367 -9.763867
5526 277 1 9.358382 -1.053381 -9.754284
5527 277 1 10.328382 -1.068203 -9.791660
5528 277 1 11.298382 -0.992329 -9.718857
5529 277 1 12.268382 -1.076199 -9.705729
5530 277 1 13.238382 -0.953393 -9.692273
5531 277 1 14.208382 -0.933425 -9.791077
5532 277 1 15.178382 -0.923440 -9.715628
5533 277 1 16.148382 -1.072832 -9.829089
5534 277 1 17.118382 -0.967853 -9.822057
5535 277 1 18.088382 -1.094324 -9.759099
5536 277 1 19.058382 -1.068375 -9.766620
5537 277 1 20.028382 -0.943464 -9.687406
5538 277 1 20.998382 -1.053418 -9.731208
5539 277 1 21.968382 -1.079608 -9.806443
5540 277 1 22.938382 -1.100453 -9.722331
5541 278 1 -5.730009 4.928513 0.265786
5542 278 1 -4.760009 4.809379 0.269993
5543 278 1 -3.790009 4.816509 0.319261
5544 278 1 -2.820009 4.816779 0.322685
5545 278 1 -1.850009 4.927866 0.344629
5546 278 1 -0.880009 4.928566 0.412602
5547 278 1 0.089991 4.931870 0.251275
5548 278 1 1.059991 4.888026 0.382136
5549 278 1 2.029991 4.830696 0.370829
5550 278 1 2.999991 4.925754 0.363882
5551 278 1 3.969991 4.956163 0.380237
5552 278 1 4.939991 4.965334 0.346516
5553 278 1 5.909991 4.838388 0.419325
5554 278 1 6.879991 4.934477 0.276880
5555 278 1 7.849991 4.945168 0.335101
5556 278 1 8.819991 4.968212 0.321759
5557 278 1 9.789991 4.993516 0.385555
5558 278 1 10.759991 4.880230 0.317243
5559 278 1 11.729991 4.983241 0.307698
5560 278 1 12.699991 4.983295 0.445497
5561 279 1 7.485442 9.756532 -7.751430
5562 279 1 8.455442 9.761524 -7.767420
5563 279 1 9.425442 9.887812 -7.705293
5564 279 1 10.395442 9.756482 -7.750366
5565 279 1 11.365442 9.730565 -7.850056
5566 279 1 12.335442 9.710910 -7.816961
5567 279 1 13.305442 9.851043 -7.828262
5568 279 1 14.275442 9.732966 -7.702316
5569 279 1 15.245442 9.871650 -7.769928
5570 279 1 16.215442 9.735659 -7.836465
5571 279 1 17.185442 9.773969 -7.755969
5572 279 1 18.155442 9.774588 -7.744510
5573 279 1 19.125442 9.736625 -7.680647
5574 279 1 20.095442 9.764172 -7.723513
5575 279 1 21.065442 9.848909 -7.746116
5576 279 1 22.035442 9.773976 -7.681332
5577 279 1 23.005442 9.825344 -7.736847
5578 279 1 23.975442 9.872623 -7.851396
5579 279 1 24.945442 9.746152 -7.751200
5580 279 1 25.915442 9.719260 -7.854561
5581 280 1 -2.665219 -3.253664 -9.202970
5582 280 1 -1.695219 -3.161983 -9.094327
5583 280 1 -0.725219 -3.204717 -9.273930
5584 280 1 0.244781 -3.228524 -9.197949
5585 280 1 1.214781 -3.172737 -9.164695
5586 280 1 2.184781 -3.240147 -9.082772
5587 280 1 3.154781 -3.206156 -9.225070
5588 280 1 4.124781 -3.199075 -9.240846
5589 280 1 5.094781 -3.232489 -9.140948
5590 280 1 6.064781 -3.281751 -9.215088
5591 280 1 7.034781 -3.259796 -9.194314
5592 280 1 8.004781 -3.262363 -9.225025
5593 280 1 8.974781 -3.253840 -9.273417
5594 280 1 9.944781 -3.267932 -9.192689
5595 280 1 10.914781 -3.350085 -9.223071
5596 280 1 11.884781 -3.167153 -9.223226
5597 280 1 12.854781 -3.311567 -9.248506
5598 280 1 13.824781 -3.188716 -9.123825
5599 280 1 14.794781 -3.260650 -9.206881
5600 280 1 15.764781 -3.295371 -9.085354
5601 281 1 -4.202773 -0.449321 -2.491878
5602 281 1 -3.232773 -0.415798 -2.475481
5603 281 1 -2.262773 -0.478268 -2.594777
5604 281 1 -1.292773 -0.538551 -2.535981
5605 281 1 -0.322773 -0.516472 -2.598542
5606 281 1 0.647227 -0.413904 -2.474490
5607 281 1 1.617227 -0.531442 -2.428925
5608 281 1 2.587227 -0.425849 -2.410759
5609 281 1 3.557227 -0.605956 -2.556853
5610 281 1 4.527227 -0.418181 -2.574809
5611 281 1 5.497227 -0.591257 -2.434953
5612 281 1 6.467227 -0.511772 -2.526431
5613 281 1 7.437227 -0.451759 -2.457441
5614 281 1 8.407227 -0.449026 -2.448850
5615 281 1 9.377227 -0.490665 -2.422012
5616 281 1 10.347227 -0.418680 -2.420238
5617 281 1 11.317227 -0.606893 -2.422711
5618 281 1 12.287227 -0.444920 -2.498214
5619 281 1 13.257227 -0.601328 -2.547201
5620 281 1 14.227227 -0.426741 -2.501090
5621 282 1 -1.580879 -1.503227 9.614922
5622 282 1 -0.610879 -1.491181 9.538003
5623 282 1 0.359121 -1.486790 9.582253
5624 282 1 1.329121 -1.556334 9.465735
5625 282 1 2.299121 -1.469342 9.551415
5626 282 1 3.269121 -1.493483 9.595718
5627 282 1 4.239121 -1.557409 9.572990
5628 282 1 5.209121 -1.406303 9.480678
5629 282 1 6.179121 -1.413399 9.523882
5630 282 1 7.149121 -1.530150 9.492687
5631 282 1 8.119121 -1.510820 9.440375
5632 282 1 9.089121 -1.518732 9.549651
5633 282 1 10.059121 -1.493432 9.440719
5634 282 1 11.029121 -1.433767 9.612142
5635 282 1 11.999121 -1.522489 9.427830
5636 282 1 12.969121 -1.587365 9.608550
5637 282 1 13.939121 -1.496185 9.510127
5638 282 1 14.909121 -1.458816 9.620660
5639 282 1 15.879121 -1.391281 9.496679
5640 282 1 16.849121 -1.496959 9.568465
5641 283 1 -8.717365 -0.101182 -1.294205
5642 283 1 -7.747365 0.021605 -1.231604
5643 283 1 -6.777365 0.049563 -1.310510
5644 283 1 -5.807365 -0.121402 -1.270366
5645 283 1 -4.837365 -0.074535 -1.371363
5646 283 1 -3.867365 -0.008848 -1.261952
5647 283 1 -2.897365 -0.105788 -1.371703
5648 283 1 -1.927365 -0.013886 -1.192846
5649 283 1 -0.957365 0.028218 -1.297503
5650 283 1 0.012635 -0.126903 -1.195519
5651 283 1 0.982635 -0.080859 -1.263867
5652 283 1 1.952635 -0.075724 -1.210661
5653 283 1 2.922635 -0.043007 -1.277128
5654 283 1 3.892635 0.015869 -1.357249
5655 283 1 4.862635 0.016952 -1.268212
5656 283 1 5.832635 0.020927 -1.256638
5657 283 1 6.802635 -0.096998 -1.266374
5658 283 1 7.772635 -0.037543 -1.333378
5659 283 1 8.742635 0.006630 -1.249009
5660 283 1 9.712635 0.001891 -1.258897
5661 284 1 -3.656656 -8.037377 2.604771
5662 284 1 -2.686656 -8.050501 2.543132
5663 284 1 -1.716656 -8.217560 2.480966
5664 284 1 -0.746656 -8.123545 2.634319
5665 284 1 0.223344 -8.222902 2.592524
5666 284 1 1.193344 -8.174826 2.578503
5667 284 1 2.163344 -8.162660 2.612497
5668 284 1 3.133344 -8.135974 2.569714
5669 284 1 4.103344 -8.193131 2.616993
5670 284 1 5.073344 -8.143443 2.653889
5671 284 1 6.043344 -8.172683 2.593007
5672 284 1 7.013344 -8.039448 2.556193
5673 284 1 7.983344 -8.076377 2.629124
5674 284 1 8.953344 -8.058814 2.565845
5675 284 1 9.923344 -8.062961 2.625424
5676 284 1 10.893344 -8.157484 2.653878
5677 284 1 11.863344 -8.119375 2.654697
5678 284 1 12.833344 -8.133967 2.477285
5679 284 1 13.803344 -8.070374 2.609244
5680 284 1 14.773344 -8.102773 2.525857
5681 285 1 -1.085615 6.952165 1.102521
5682 285 1 -0.115615 6.982718 1.046351
5683 285 1 0.854385 6.975407 1.193991
5684 285 1 1.824385 7.005960 1.129116
5685 285 1 2.794385 7.024084 1.066920
5686 285 1 3.764385 6.965305 1.069443
5687 285 1 4.734385 6.955805 1.165024
5688 285 1 5.704385 6.932616 1.032852
5689 285 1 6.674385 6.979960 1.157055
5690 285 1 7.644385 6.996137 1.027238
5691 285 1 8.614385 7.075655 1.129287
5692 285 1 9.584385 7.073208 1.002775
5693 285 1 10.554385 6.984161 1.124328
5694 285 1 11.524385 7.051295 1.068396
5695 285 1 12.494385 6.935733 1.048803
5696 285 1 13.464385 6.921195 1.017255
5697 285 1 14.434385 7.072331 1.070566
5698 285 1 15.404385 6.901275 1.096854
5699 285 1 16.374385 6.931743 1.186421
5700 285 1 17.344385 6.992064 1.080089
5701 286 1 -4.800672 6.185717 0.034416
5702 286 1 -3.830672 6.283462 0.146639
5703 286 1 -2.860672 6.168605 0.124857
5704 286 1 -1.890672 6.295699 0.085747
5705 286 1 -0.920672 6.206665 0.034189
5706 286 1 0.049328 6.177719 0.045623
5707 286 1 1.019328 6.126099 0.071033
5708 286 1 1.989328 6.272687 0.118186
5709 286 1 2.959328 6.294207 0.074449
5710 286 1 3.929328 6.189111 0.208828
5711 286 1 4.899328 6.176760 0.063565
5712 286 1 5.869328 6.219471 0.215635
5713 286 1 6.839328 6.183620 0.123741
5714 286 1 7.809328 6.273131 0.077804
5715 286 1 8.779328 6.166755 0.086751
5716 286 1 9.749328 6.218542 0.023474
5717 286 1 10.719328 6.131980 0.034165
5718 286 1 11.689328 6.141082 0.187434
5719 286 1 12.659328 6.157258 0.100350
5720 286 1 13.629328 6.220837 0.212865
5721 287 1 5.480890 5.412402 -9.253480
5722 287 1 6.450890 5.374033 -9.338106
5723 287 1 7.420890 5.360707 -9.234499
5724 287 1 8.390890 5.344477 -9.247211
5725 287 1 9.360890 5.447893 -9.183974
5726 287 1 10.330890 5.283136 -9.176722
5727 287 1 11.300890 5.299003 -9.275901
5728 287 1 12.270890 5.389680 -9.186017
5729 287 1 13.240890 5.441393 -9.287434
5730 287 1 14.210890 5.417052 -9.205803
5731 287 1 15.180890 5.365448 -9.257494
5732 287 1 16.150890 5.393098 -9.201364
5733 287 1 17.120890 5.323042 -9.366393
5734 287 1 18.090890 5.396191 -9.193177
5735 287 1 19.060890 5.382718 -9.313162
5736 287 1 20.030890 5.446231 -9.261591
5737 287 1 21.000890 5.409092 -9.362315
5738 287 1 21.970890 5.291596 -9.200679
5739 287 1 22.940890 5.283256 -9.186305
5740 287 1 23.910890 5.332237 -9.173181
5741 288 1 -1.845638 -6.633372 -2.151163
5742 288 1 -0.875638 -6.708720 -2.157948
5743 288 1 0.094362 -6.561741 -1.985502
5744 288 1 1.064362 -6.556265 -2.024356
5745 288 1 2.034362 -6.622847 -1.973340
5746 288 1 3.004362 -6.650901 -2.166676
5747 288 1 3.974362 -6.672653 -1.984738
5748 288 1 4.944362 -6.714268 -2.153322
5749 288 1 5.914362 -6.670134 -2.124368
5750 288 1 6.884362 -6.584162 -2.052935
5751 288 1 7.854362 -6.562930 -1.996198
5752 288 1 8.824362 -6.546455 -2.036383
5753 288 1 9.794362 -6.690099 -2.034961
5754 288 1 10.764362 -6.687729 -2.157824
5755 288 1 11.734362 -6.650740 -1.969197
5756 288 1 12.704362 -6.637255 -2.100770
5757 288 1 13.674362 -6.631560 -2.040237
5758 288 1 14.644362 -6.622719 -2.097781
5759 288 1 15.614362 -6.619329 -2.104165
5760 288 1 16.584362 -6.544633 -1.976153
5761 289 1 0.461601 9.872275 2.556850
5762 289 1 1.431601 9.790168 2.493014
5763 289 1 2.401601 9.893720 2.438075
5764 289 1 3.371601 9.830610 2.452952
5765 289 1 4.341601 9.880696 2.599484
5766 289 1 5.311601 9.792938 2.623496
5767 289 1 6.281601 9.837918 2.588155
5768 289 1 7.251601 9.827383 2.474770
5769 289 1 8.221601 9.789830 2.590725
5770 289 1 9.191601 9.808733 2.437611
5771 289 1 10.161601 9.907929 2.508582
5772 289 1 11.131601 9.829198 2.562617
5773 289 1 12.101601 9.757431 2.532013
5774 289 1 13.071601 9.886182 2.525151
5775 289 1 14.041601 9.827083 2.626622
5776 289 1 15.011601 9.764726 2.518173
5777 289 1 15.981601 9.747260 2.621336
5778 289 1 16.951601 9.773646 2.622647
5779 289 1 17.921601 9.920715 2.531968
5780 289 1 18.891601 9.932098 2.481463
5781 290 1 -9.720420 4.828235 -9.323423
5782 290 1 -8.750420 4.807307 -9.351677
5783 290 1 -7.780420 4.788633 -9.187996
5784 290 1 -6.810420 4.868206 -9.246349
5785 290 1 -5.840420 4.812845 -9.380777
5786 290 1 -4.870420 4.896436 -9.340621
5787 290 1 -3.900420 4.782544 -9.372865
5788 290 1 -2.930420 4.783760 -9.277796
5789 290 1 -1.960420 4.899772 -9.335462
5790 290 1 -0.990420 4.943491 -9.237697
5791 290 1 -0.020420 4.870836 -9.248520
5792 290 1 0.949580 4.947557 -9.321585
5793 290 1 1.919580 4.965050 -9.298145
5794 290 1 2.889580 4.959204 -9.286084
5795 290 1 3.859580 4.899233 -9.371338
5796 290 1 4.829580 4.815705 -9.216832
5797 290 1 5.799580 4.944461 -9.348571
5798 290 1 6.769580 4.811508 -9.328711
5799 290 1 7.739580 4.884143 -9.319812
5800 290 1 8.709580 4.791191 -9.372748
5801 291 1 -5.486759 -6.092866 8.519586
5802 291 1 -4.516759 -6.124650 8.486055
5803 291 1 -3.546759 -6.095373 8.469900
5804 291 1 -2.576759 -5.971535 8.576131
5805 291 1 -1.606759 -5.982447 8.640009
5806 291 1 -0.636759 -5.994932 8.510293
5807 291 1 0.333241 -6.128030 8.572007
5808 291 1 1.303241 -5.998856 8.514761
5809 291 1 2.273241 -6.080096 8.646768
5810 291 1 3.243241 -5.979172 8.480793
5811 291 1 4.213241 -6.097140 8.569459
5812 291 1 5.183241 -6.019149 8.530771
5813 291 1 6.153241 -6.078207 8.476260
5814 291 1 7.123241 -6.016060 8.515858
5815 291 1 8.093241 -6.107544 8.588070
5816 291 1 9.063241 -6.067859 8.493166
5817 291 1 10.033241 -6.007244 8.590082
5818 291 1 11.003241 -5.990845 8.630487
5819 291 1 11.973241 -6.052186 8.449708
5820 291 1 12.943241 -5.972294 8.624077
5821 292 1 9.197005 -5.866403 -5.944820
5822 292 1 10.167005 -5.971889 -6.038285
5823 292 1 11.137005 -5.887916 -5.984588
5824 292 1 12.107005 -5.977061 -5.969988
5825 292 1 13.077005 -5.855702 -6.048621
5826 292 1 14.047005 -5.845423 -6.012212
5827 292 1 15.017005 -5.965295 -5.978121
5828 292 1 15.987005 -5.860996 -5.969130
5829 292 1 16.957005 -5.821848 -5.976249
5830 292 1 17.927005 -5.920996 -5.988459
5831 292 1 18.897005 -5.836224 -5.967597
5832 292 1 19.867005 -5.973673 -5.929542
5833 292 1 20.837005 -5.825543 -5.915344
5834 292 1 21.807005 -5.956085 -6.085908
5835 292 1 22.777005 -5.877611 -6.033267
5836 292 1 23.747005 -5.999312 -5.892235
5837 292 1 24.717005 -5.893782 -6.000014
5838 292 1 25.687005 -5.881768 -5.905892
5839 292 1 26.657005 -5.884520 -5.909015
5840 292 1 27.627005 -5.905421 -5.960313
5841 293 1 1.129249 6.311043 -0.567584
5842 293 1 2.099249 6.350391 -0.598897
5843 293 1 3.069249 6.187865 -0.582460
5844 293 1 4.039249 6.181521 -0.737204
5845 293 1 5.009249 6.313223 -0.716412
5846 293 1 5.979249 6.320941 -0.590410
5847 293 1 6.949249 6.258925 -0.606510
5848 293 1 7.919249 6.212087 -0.673064
5849 293 1 8.889249 6.371913 -0.555687
5850 293 1 9.859249 6.358477 -0.635071
5851 293 1 10.829249 6.377511 -0.742625
5852 293 1 11.799249 6.265828 -0.697807
5853 293 1 12.769249 6.202238 -0.608418
5854 293 1 13.739249 6.329003 -0.735113
5855 293 1 14.709249 6.347768 -0.623505
5856 293 1 15.679249 6.186430 -0.561424
5857 293 1 16.649249 6.183754 -0.706682
5858 293 1 17.619249 6.193569 -0.580855
5859 293 1 18.589249 6.312072 -0.720415
5860 293 1 19.559249 6.260977 -0.673534
5861 294 1 9.236840 6.841481 2.762320
5862 294 1 10.206840 6.757419 2.857369
5863 294 1 11.176840 6.793680 2.669845
5864 294 1 12.146840 6.752928 2.860984
5865 294 1 13.116840 6.652608 2.793169
5866 294 1 14.086840 6.847459 2.743561
5867 294 1 15.056840 6.826368 2.783546
5868 294 1 16.026840 6.725216 2.806690
5869 294 1 16.996840 6.710190 2.722504
5870 294 1 17.966840 6.703918 2.796152
5871 294 1 18.936840 6.711070 2.753819
5872 294 1 19.906840 6.766183 2.844064
5873 294 1 20.876840 6.723990 2.699219
5874 294 1 21.846840 6.813891 2.838337
5875 294 1 22.816840 6.689239 2.760386
5876 294 1 23.786840 6.785145 2.684563
5877 294 1 24.756840 6.755862 2.776932
5878 294 1 25.726840 6.811700 2.760852
5879 294 1 26.696840 6.771915 2.684046
5880 294 1 27.666840 6.699179 2.806573
5881 295 1 3.293398 4.841542 1.534640
5882 295 1 4.263398 4.910454 1.520255
5883 295 1 5.233398 4.868532 1.524944
5884 295 1 6.203398 4.814957 1.528324
5885 295 1 7.173398 4.967048 1.544642
5886 295 1 8.143398 4.845117 1.620242
5887 295 1 9.113398 4.871899 1.706278
5888 295 1 10.083398 4.905154 1.525568
5889 295 1 11.053398 4.953644 1.555945
5890 295 1 12.023398 4.973093 1.699011
5891 295 1 12.993398 4.993027 1.652624
5892 295 1 13.963398 4.900094 1.664405
5893 295 1 14.933398 4.829166 1.568758
5894 295 1 15.903398 4.831023 1.543986
5895 295 1 16.873398 4.953284 1.693046
5896 295 1 17.843398 4.999359 1.627641
5897 295 1 18.813398 4.803064 1.589256
5898 295 1 19.783398 4.859003 1.661699
5899 295 1 20.753398 4.830506 1.656368
5900 295 1 21.723398 4.905014 1.647562
5901 296 1 8.732066 8.421963 8.604709
5902 296 1 9.702066 8.318956 8.551906
5903 296 1 10.672066 8.374752 8.668511
5904 296 1 11.642066 8.328474 8.534791
5905 296 1 12.612066 8.475948 8.564089
5906 296 1 13.582066 8.350794 8.569826
5907 296 1 14.552066 8.400091 8.567173
5908 296 1 15.522066 8.345799 8.725172
5909 296 1 16.492066 8.354697 8.658445
5910 296 1 17.462066 8.433999 8.624235
5911 296 1 18.432066 8.334579 8.692390
5912 296 1 19.402066 8.458943 8.560424
5913 296 1 20.372066 8.447431 8.686653
5914 296 1 21.342066 8.352361 8.720737
5915 296 1 22.312066 8.445953 8.628412
5916 296 1 23.282066 8.357684 8.661093
5917 296 1 24.252066 8.321958 8.670462
5918 296 1 25.222066 8.455344 8.712717
5919 296 1 26.192066 8.479017 8.626209
5920 296 1 27.162066 8.433334 8.719626
5921 297 1 -3.118160 2.800024 0.690925
5922 297 1 -2.148160 2.825718 0.618799
5923 297 1 -1.178160 2.740051 0.592044
5924 297 1 -0.208160 2.709072 0.687825
5925 297 1 0.761840 2.850311 0.707553
5926 297 1 1.731840 2.843495 0.643802
5927 297 1 2.701840 2.695330 0.694074
5928 297 1 3.671840 2.846681 0.703378
5929 297 1 4.641840 2.714955 0.680646
5930 297 1 5.611840 2.767851 0.658590
5931 297 1 6.581840 2.855371 0.607594
5932 297 1 7.551840 2.856130 0.591594
5933 297 1 8.521840 2.756539 0.687717
5934 297 1 9.491840 2.793544 0.636154
5935 297 1 10.461840 2.857722 0.631653
5936 297 1 11.431840 2.723610 0.559823
5937 297 1 12.401840 2.760487 0.647971
5938 297 1 13.371840 2.770429 0.589110
5939 297 1 14.341840 2.838669 0.617989
5940 297 1 15.311840 2.796105 0.600403
5941 298 1 6.796815 -4.427122 3.262206
5942 298 1 7.766815 -4.340019 3.127161
5943 298 1 8.736815 -4.457935 3.134376
5944 298 1 9.706815 -4.313380 3.203796
5945 298 1 10.676815 -4.449381 3.111510
5946 298 1 11.646815 -4.476615 3.206704
5947 298 1 12.616815 -4.489879 3.066816
5948 298 1 13.586815 -4.362491 3.232576
5949 298 1 14.556815 -4.445380 3.211224
5950 298 1 15.526815 -4.483048 3.137897
5951 298 1 16.496815 -4.384169 3.171131
5952 298 1 17.466815 -4.484885 3.104428
5953 298 1 18.436815 -4.468740 3.219328
5954 298 1 19.406815 -4.375074 3.121503
5955 298 1 20.376815 -4.456823 3.200163
5956 298 1 21.346815 -4.359333 3.123202
5957 298 1 22.316815 -4.427247 3.113119
5958 298 1 23.286815 -4.477663 3.135474
5959 298 1 24.256815 -4.382380 3.087239
5960 298 1 25.226815 -4.304235 3.145009
5961 299 1 -3.479125 -4.977325 7.110321
5962 299 1 -2.509125 -4.962945 6.991553
5963 299 1 -1.539125 -4.956556 7.061319
5964 299 1 -0.569125 -4.951917 7.094936
5965 299 1 0.400875 -4.863884 6.987336
5966 299 1 1.370875 -4.866728 6.984484
5967 299 1 2.340875 -4.861414 7.034462
5968 299 1 3.310875 -4.981347 6.986036
5969 299 1 4.280875 -4.940704 7.119029
5970 299 1 5.250875 -4.826601 7.045408
5971 299 1 6.220875 -4.950065 6.979504
5972 299 1 7.190875 -4.961331 7.047144
5973 299 1 8.160875 -4.894763 6.983222
5974 299 1 9.130875 -4.970555 6.996166
5975 299 1 10.100875 -5.004453 7.043813
5976 299 1 11.070875 -4.930435 7.076457
5977 299 1 12.040875 -4.992681 7.079736
5978 299 1 13.010875 -5.002414 6.977421
5979 299 1 13.980875 -4.835062 7.120734
5980 299 1 14.950875 -4.846734 7.131856
5981 300 1 2.694932 -1.998909 0.676323
5982 300 1 3.664932 -1.820201 0.592187
5983 300 1 4.634932 -1.858900 0.647387
5984 300 1 5.604932 -1.856227 0.545863
5985 300 1 6.574932 -1.939093 0.681664
5986 300 1 7.544932 -1.953789 0.613559
5987 300 1 8.514932 -2.008849 0.610279
5988 300 1 9.484932 -1.905894 0.629428
5989 300 1 10.454932 -1.989513 0.632765
5990 300 1 11.424932 -1.869565 0.622300
5991 300 1 12.394932 -1.860878 0.663344
5992 300 1 13.364932 -1.872593 0.595735
5993 300 1 14.334932 -1.994508 0.585235
5994 300 1 15.304932 -1.936176 0.527175
5995 300 1 16.274932 -1.830597 0.699767
5996 300 1 17.244932 -1.850096 0.535939
5997 300 1 18.214932 -1.889829 0.525375
5998 300 1 19.184932 -1.904699 0.622146
5999 300 1 20.154932 -1.861371 0.701500
6000 300 1 21.124932 -1.857024 0.631914
6001 301 1 1.904289 -9.836668 0.880760
6002 301 1 2.874289 -9.857500 0.758148
6003 301 1 3.844289 -9.709244 0.862388
6004 301 1 4.814289 -9.710602 0.836977
6005 301 1 5.784289 -9.782912 0.838265
6006 301 1 6.754289 -9.862916 0.946788
6007 301 1 7.724289 -9.852957 0.823923
6008 301 1 8.694289 -9.834083 0.949571
6009 301 1 9.664289 -9.833100 0.843881
6010 301 1 10.634289 -9.731781 0.789722
6011 301 1 11.604289 -9.712069 0.827851
6012 301 1 12.574289 -9.858134 0.931655
6013 301 1 13.544289 -9.784214 0.948093
6014 301 1 14.514289 -9.816954 0.772666
6015 301 1 15.484289 -9.848794 0.941195
6016 301 1 16.454289 -9.842918 0.860130
6017 301 1 17.424289 -9.726175 0.846414
6018 301 1 18.394289 -9.800302 0.811645
6019 301 1 19.364289 -9.741197 0.852756
6020 301 1 20.334289 -9.763027 0.815335
6021 302 1 8.836086 -0.096893 -5.376761
6022 302 1 9.806086 -0.126888 -5.180316
6023 302 1 10.776086 -0.144880 -5.297792
6024 302 1 11.746086 -0.187851 -5.260247
6025 302 1 12.716086 -0.073763 -5.314263
6026 302 1 13.686086 -0.024988 -5.279004
6027 302 1 14.656086 -0.110269 -5.328629
6028 302 1 15.626086 -0.144066 -5.317138
6029 302 1 16.596086 -0.133981 -5.361141
6030 302 1 17.566086 -0.122938 -5.252874
6031 302 1 18.536086 -0.154078 -5.217783
6032 302 1 19.506086 -0.160959 -5.236062
6033 302 1 20.476086 -0.157287 -5.261740
6034 302 1 21.446086 -0.025447 -5.306919
6035 302 1 22.416086 -0.118491 -5.240164
6036 302 1 23.386086 -0.177812 -5.358806
6037 302 1 24.356086 -0.025758 -5.368494
6038 302 1 25.326086 -0.077896 -5.209558
6039 302 1 26.296086 -0.177178 -5.196508
6040 302 1 27.266086 -0.059402 -5.218593
6041 303 1 -6.984760 0.000134 8.489630
6042 303 1 -6.014760 0.145152 8.545830
6043 303 1 -5.044760 0.139209 8.620017
6044 303 1 -4.074760 0.097800 8.472236
6045 303 1 -3.104760 0.112649 8.640603
6046 303 1 -2.134760 0.103325 8.525919
6047 303 1 -1.164760 0.133037 8.446381
6048 303 1 -0.194760 0.161228 8.456911
6049 303 1 0.775240 0.124297 8.488629
6050 303 1 1.745240 0.147163 8.587866
6051 303 1 2.715240 0.131138 8.550591
6052 303 1 3.685240 0.053862 8.627732
6053 303 1 4.655240 0.025707 8.492438
6054 303 1 5.625240 0.086476 8.450524
6055 303 1 6.595240 0.107578 8.447468
6056 303 1 7.565240 0.096959 8.594918
6057 303 1 8.535240 0.125333 8.641429
6058 303 1 9.505240 0.132018 8.504728
6059 303 1 10.475240 0.149729 8.532756
6060 303 1 11.445240 0.052717 8.518311
6061 304 1 -7.128496 -5.034624 -0.876072
6062 304 1 -6.158496 -5.013488 -0.981876
6063 304 1 -5.188496 -5.129043 -0.970916
6064 304 1 -4.218496 -5.053065 -1.033931
6065 304 1 -3.248496 -5.162632 -1.006071
6066 304 1 -2.278496 -5.055503 -0.963134
6067 304 1 -1.308496 -5.194071 -0.922630
6068 304 1 -0.338496 -5.024338 -0.864080
6069 304 1 0.631504 -5.019363 -0.962609
6070 304 1 1.601504 -5.047977 -0.868729
6071 304 1 2.571504 -5.024479 -1.002318
6072 304 1 3.541504 -5.065714 -0.855269
6073 304 1 4.511504 -5.143857 -0.862080
6074 304 1 5.481504 -5.059239 -0.949610
6075 304 1 6.451504 -5.206171 -1.009748
6076 304 1 7.421504 -5.153164 -1.014572
6077 304 1 8.391504 -5.069221 -0.861848
6078 304 1 9.361504 -5.013448 -0.874074
6079 304 1 10.331504 -5.128792 -1.053215
6080 304 1 11.301504 -5.067332 -0.880779
6081 305 1 9.683094 -5.357151 4.031327
6082 305 1 10.653094 -5.257585 4.047162
6083 305 1 11.623094 -5.291226 3.964595
6084 305 1 12.593094 -5.324179 3.881716
6085 305 1 13.563094 -5.366975 3.961404
6086 305 1 14.533094 -5.365470 3.871626
6087 305 1 15.503094 -5.321294 3.990463
6088 305 1 16.473094 -5.297549 3.896957
6089 305 1 17.443094 -5.221485 3.911343
6090 305 1 18.413094 -5.342909 4.045053
6091 305 1 19.383094 -5.241887 3.900283
6092 305 1 20.353094 -5.275602 3.978165
6093 305 1 21.323094 -5.349998 4.041767
6094 305 1 22.293094 -5.338214 3.865173
6095 305 1 23.263094 -5.383615 3.952486
6096 305 1 24.233094 -5.313585 3.859871
6097 305 1 25.203094 -5.279729 3.896257
6098 305 1 26.173094 -5.272652 3.998311
6099 305 1 27.143094 -5.253302 3.875423
6100 305 1 28.113094 -5.375467 4.024185
6101 306 1 5.211635 -3.553228 -4.016742
6102 306 1 6.181635 -3.530590 -4.119819
6103 306 1 7.151635 -3.612095 -4.129411
6104 306 1 8.121635 -3.595333 -4.136072
6105 306 1 9.091635 -3.545893 -4.041711
6106 306 1 10.061635 -3.647652 -4.126340
6107 306 1 11.031635 -3.575358 -4.042751
6108 306 1 12.001635 -3.616082 -4.131275
6109 306 1 12.971635 -3.530660 -4.128339
6110 306 1 13.941635 -3.510059 -4.017426
6111 306 1 14.911635 -3.471139 -4.111146
6112 306 1 15.881635 -3.487360 -4.058804
6113 306 1 16.851635 -3.584681 -3.971178
6114 306 1 17.821635 -3.505573 -4.043551
6115 306 1 18.791635 -3.621707 -4.053989
6116 306 1 19.761635 -3.491846 -4.040334
6117 306 1 20.731635 -3.647343 -4.029198
6118 306 1 21.701635 -3.621377 -4.023480
6119 306 1 22.671635 -3.530570 -4.050229
6120 306 1 23.641635 -3.592676 -4.136036
6121 307 1 -9.638639 1.708122 -5.270775
6122 307 1 -8.668639 1.718701 -5.398015
6123 307 1 -7.698639 1.724362 -5.386310
6124 307 1 -6.728639 1.686991 -5.426518
6125 307 1 -5.758639 1.681875 -5.312525
6126 307 1 -4.788639 1.798353 -5.425408
6127 307 1 -3.818639 1.701977 -5.310703
6128 307 1 -2.848639 1.657922 -5.388988
6129 307 1 -1.878639 1.650389 -5.278135
6130 307 1 -0.908639 1.766387 -5.384147
6131 307 1 0.061361 1.796174 -5.293993
6132 307 1 1.031361 1.779134 -5.261282
6133 307 1 2.001361 1.739988 -5.377259
6134 307 1 2.971361 1.616791 -5.441837
6135 307 1 3.941361 1.761729 -5.343282
6136 307 1 4.911361 1.796215 -5.433323
6137 307 1 5.881361 1.614644 -5.319620
6138 307 1 6.851361 1.741758 -5.424310
6139 307 1 7.821361 1.714141 -5.421893
6140 307 1 8.791361 1.778820 -5.454404
6141 308 1 8.077037 -4.746908 1.361776
6142 308 1 9.047037 -4.896497 1.380196
6143 308 1 10.017037 -4.846767 1.413156
6144 308 1 10.987037 -4.749456 1.342912
6145 308 1 11.957037 -4.870115 1.265943
6146 308 1 12.927037 -4.757368 1.446953
6147 308 1 13.897037 -4.832260 1.409315
6148 308 1 14.867037 -4.885980 1.435926
6149 308 1 15.837037 -4.860524 1.334390
6150 308 1 16.807037 -4.746336 1.267540
6151 308 1 17.777037 -4.882726 1.352289
6152 308 1 18.747037 -4.740888 1.366764
6153 308 1 19.717037 -4.874254 1.395147
6154 308 1 20.687037 -4.779477 1.270259
6155 308 1 21.657037 -4.850610 1.391564
6156 308 1 22.627037 -4.810747 1.428516
6157 308 1 23.597037 -4.874849 1.299841
6158 308 1 24.567037 -4.798959 1.451150
6159 308 1 25.537037 -4.738456 1.325675
6160 308 1 26.507037 -4.836050 1.362014
6161 309 1 0.678846 8.092471 9.153833
6162 309 1 1.648846 8.221757 9.190246
6163 309 1 2.618846 8.190035 9.030645
6164 309 1 3.588846 8.101464 9.176971
6165 309 1 4.558846 8.170572 9.054087
6166 309 1 5.528846 8.169104 9.094633
6167 309 1 6.498846 8.097377 9.097908
6168 309 1 7.468846 8.235606 9.128778
6169 309 1 8.438846 8.101935 9.099982
6170 309 1 9.408846 8.197793 9.057447
6171 309 1 10.378846 8.261605 9.157537
6172 309 1 11.348846 8.080443 9.198503
6173 309 1 12.318846 8.080912 9.116263
6174 309 1 13.288846 8.084859 9.203942
6175 309 1 14.258846 8.132086 9.079815
6176 309 1 15.228846 8.190930 9.116490
6177 309 1 16.198846 8.215596 9.078782
6178 309 1 17.168846 8.151992 9.073329
6179 309 1 18.138846 8.188468 9.174715
6180 309 1 19.108846 8.217963 9.172714
6181 310 1 -2.643397 -7.121684 -0.464406
6182 310 1 -1.673397 -7.163907 -0.461399
6183 310 1 -0.703397 -7.217928 -0.506899
6184 310 1 0.266603 -7.088236 -0.559969
6185 310 1 1.236603 -7.184596 -0.457152
6186 310 1 2.206603 -7.083539 -0.422961
6187 310 1 3.176603 -7.243186 -0.546628
6188 310 1 4.146603 -7.112679 -0.497406
6189 310 1 5.116603 -7.163362 -0.383854
6190 310 1 6.086603 -7.231110 -0.554819
6191 310 1 7.056603 -7.067258 -0.467364
6192 310 1 8.026603 -7.208013 -0.404236
6193 310 1 8.996603 -7.147621 -0.560102
6194 310 1 9.966603 -7.050272 -0.536674
6195 310 1 10.936603 -7.142136 -0.465244
6196 310 1 11.906603 -7.158134 -0.515953
6197 310 1 12.876603 -7.083967 -0.547449
6198 310 1 13.846603 -7.189129 -0.533088
6199 310 1 14.816603 -7.092964 -0.390669
6200 310 1 15.786603 -7.172880 -0.387310
6201 311 1 0.181855 2.511944 -7.598887
6202 311 1 1.151855 2.458128 -7.747245
6203 311 1 2.121855 2.380391 -7.645293
6204 311 1 3.091855 2.429586 -7.691413
6205 311 1 4.061855 2.463337 -7.649937
6206 311 1 5.031855 2.510979 -7.627683
6207 311 1 6.001855 2.368309 -7.630636
6208 311 1 6.971855 2.367875 -7.584745
6209 311 1 7.941855 2.377449 -7.690439
6210 311 1 8.911855 2.453010 -7.707492
6211 311 1 9.881855 2.373231 -7.587112
6212 311 1 10.851855 2.453528 -7.658366
6213 311 1 11.821855 2.388511 -7.627052
6214 311 1 12.791855 2.438302 -7.757657
6215 311 1 13.761855 2.407451 -7.736301
6216 311 1 14.731855 2.427522 -7.748411
6217 311 1 15.701855 2.406186 -7.684899
6218 311 1 16.671855 2.520901 -7.643943
6219 311 1 17.641855 2.389180 -7.758433
6220 311 1 18.611855 2.536605 -7.662618
6221 312 1 3.759003 5.630920 9.143827
6222 312 1 4.729003 5.478694 9.146750
6223 312 1 5.699003 5.521400 9.124160
6224 312 1 6.669003 5.504196 9.013491
6225 312 1 7.639003 5.523414 9.057139
6226 312 1 8.609003 5.635294 9.039838
6227 312 1 9.579003 5.495400 9.135552
6228 312 1 10.549003 5.486142 9.160634
6229 312 1 11.519003 5.629132 9.013274
6230 312 1 12.489003 5.538762 9.050091
6231 312 1 13.459003 5.557900 9.010636
6232 312 1 14.429003 5.656745 9.057546
6233 312 1 15.399003 5.592842 9.046701
6234 312 1 16.369003 5.536857 9.005185
6235 312 1 17.339003 5.625745 9.009295
6236 312 1 18.309003 5.514587 8.980488
6237 312 1 19.279003 5.565171 9.037748
6238 312 1 20.249003 5.494346 9.094811
6239 312 1 21.219003 5.572809 9.032548
6240 312 1 22.189003 5.517696 9.097803
6241 313 1 8.623003 -7.282410 -8.856780
6242 313 1 9.593003 -7.110560 -8.919157
6243 313 1 10.563003 -7.155763 -8.903695
6244 313 1 11.533003 -7.153916 -8.911792
6245 313 1 12.503003 -7.127667 -8.795127
6246 313 1 13.473003 -7.141672 -8.800061
6247 313 1 14.443003 -7.180890 -8.838918
6248 313 1 15.413003 -7.164354 -8.847997
6249 313 1 16.383003 -7.279592 -8.808705
6250 313 1 17.353003 -7.289376 -8.853132
6251 313 1 18.323003 -7.231231 -8.781211
6252 313 1 19.293003 -7.117189 -8.759962
6253 313 1 20.263003 -7.123681 -8.900341
6254 313 1 21.233003 -7.216989 -8.818983
6255 313 1 22.203003 -7.114081 -8.903612
6256 313 1 23.173003 -7.092912 -8.745355
6257 313 1 24.143003 -7.267184 -8.930239
6258 313 1 25.113003 -7.234956 -8.868937
6259 313 1 26.083003 -7.171533 -8.824244
6260 313 1 27.053003 -7.222184 -8.898808
6261 314 1 -6.958055 8.181040 -4.485387
6262 314 1 -5.988055 8.153601 -4.509492
6263 314 1 -5.018055 8.121963 -4.584932
6264 314 1 -4.048055 8.035333 -4.517560
6265 314 1 -3.078055 8.078906 -4.517350
6266 314 1 -2.108055 8.090363 -4.565364
6267 314 1 -1.138055 8.154094 -4.485422
6268 314 1 -0.168055 8.113974 -4.487957
6269 314 1 0.801945 8.220069 -4.496314
6270 314 1 1.771945 8.034318 -4.435375
6271 314 1 2.741945 8.081821 -4.422130
6272 314 1 3.711945 8.170254 -4.483119
6273 314 1 4.681945 8.086370 -4.498754
6274 314 1 5.651945 8.093355 -4.545681
6275 314 1 6.621945 8.093049 -4.573198
6276 314 1 7.591945 8.107657 -4.616871
6277 314 1 8.561945 8.162003 -4.420427
6278 314 1 9.531945 8.078301 -4.518312
6279 314 1 10.501945 8.144472 -4.509571
6280 314 1 11.471945 8.038445 -4.450996
6281 315 1 -3.191654 -2.215115 -4.145103
6282 315 1 -2.221654 -2.128043 -3.981747
6283 315 1 -1.251654 -2.211487 -4.002527
6284 315 1 -0.281654 -2.248919 -4.035191
6285 315 1 0.688346 -2.183790 -4.075868
6286 315 1 1.658346 -2.091838 -4.046908
6287 315 1 2.628346 -2.199103 -3.973995
6288 315 1 3.598346 -2.087707 -4.034325
6289 315 1 4.568346 -2.231734 -4.035617
6290 315 1 5.538346 -2.264854 -4.111406
6291 315 1 6.508346 -2.247768 -3.965718
6292 315 1 7.478346 -2.173276 -3.974071
6293 315 1 8.448346 -2.199582 -4.010751
6294 315 1 9.418346 -2.101951 -4.121418
6295 315 1 10.388346 -2.087213 -4.098041
6296 315 1 11.358346 -2.126571 -4.067620
6297 315 1 12.328346 -2.141019 -4.110127
6298 315 1 13.298346 -2.218697 -4.030076
6299 315 1 14.268346 -2.111460 -4.101373
6300 315 1 15.238346 -2.270335 -4.064589
6301 316 1 -8.394025 -6.973664 9.766496
6302 316 1 -7.424025 -6.813006 9.752279
6303 316 1 -6.454025 -6.824538 9.774199
6304 316 1 -5.484025 -6.841972 9.637855
6305 316 1 -4.514025 -6.829637 9.729076
6306 316 1 -3.544025 -6.880331 9.649119
6307 316 1 -2.574025 -6.865280 9.670722
6308 316 1 -1.604025 -6.896336 9.819938
6309 316 1 -0.634025 -6.980476 9.676990
6310 316 1 0.335975 -6.866378 9.644405
6311 316 1 1.305975 -6.889536 9.732327
6312 316 1 2.275975 -6.929985 9.749330
6313 316 1 3.245975 -6.894233 9.759818
6314 316 1 4.215975 -6.829280 9.766297
6315 316 1 5.185975 -6.962411 9.742773
6316 316 1 6.155975 -6.943949 9.680384
6317 316 1 7.125975 -6.951983 9.733206
6318 316 1 8.095975 -6.861883 9.666975
6319 316 1 9.065975 -6.941806 9.762003
6320 316 1 10.035975 -6.835660 9.760277
6321 317 1 -1.410651 1.435305 -2.994872
6322 317 1 -0.440651 1.337962 -2.972854
6323 317 1 0.529349 1.469631 -2.878318
6324 317 1 1.499349 1.337355 -2.991546
6325 317 1 2.469349 1.476976 -2.888444
6326 317 1 3.439349 1.359830 -2.993044
6327 317 1 4.409349 1.489351 -2.929192
6328 317 1 5.379349 1.327652 -2.998527
6329 317 1 6.349349 1.321199 -2.971827
6330 317 1 7.319349 1.409630 -2.902649
6331 317 1 8.289349 1.448377 -2.954300
6332 317 1 9.259349 1.327454 -2.881246
6333 317 1 10.229349 1.409408 -2.971735
6334 317 1 11.199349 1.508103 -3.030747
6335 317 1 12.169349 1.507553 -2.940276
6336 317 1 13.139349 1.406409 -2.971493
6337 317 1 14.109349 1.394554 -2.865015
6338 317 1 15.079349 1.464113 -2.866759
6339 317 1 16.049349 1.423312 -2.936643
6340 317 1 17.019349 1.387576 -2.937584
6341 318 1 5.040375 -4.467845 8.967039
6342 318 1 6.010375 -4.306132 8.924907
6343 318 1 6.980375 -4.313903 8.809303
6344 318 1 7.950375 -4.292170 8.906169
6345 318 1 8.920375 -4.391881 8.876829
6346 318 1 9.890375 -4.292651 8.838286
6347 318 1 10.860375 -4.398080 8.964371
6348 318 1 11.830375 -4.400488 8.937600
6349 318 1 12.800375 -4.468730 8.788627
6350 318 1 13.770375 -4.390923 8.784000
6351 318 1 14.740375 -4.390152 8.822214
6352 318 1 15.710375 -4.310785 8.960885
6353 318 1 16.680375 -4.329991 8.931356
6354 318 1 17.650375 -4.417767 8.912421
6355 318 1 18.620375 -4.403966 8.841787
6356 318 1 19.590375 -4.294809 8.790569
6357 318 1 20.560375 -4.400137 8.816389
6358 318 1 21.530375 -4.331003 8.901407
6359 318 1 22.500375 -4.417314 8.863758
6360 318 1 23.470375 -4.322006 8.794801
6361 319 1 3.319062 1.885496 2.400630
6362 319 1 4.289062 1.778979 2.571785
6363 319 1 5.259062 1.769198 2.467793
6364 319 1 6.229062 1.818345 2.537698
6365 319 1 7.199062 1.850452 2.467984
6366 319 1 8.169062 1.816523 2.534400
6367 319 1 9.139062 1.926926 2.418522
6368 319 1 10.109062 1.848038 2.503509
6369 319 1 11.079062 1.830425 2.533353
6370 319 1 12.049062 1.872671 2.536474
6371 319 1 13.019062 1.917289 2.572128
6372 319 1 13.989062 1.781148 2.511559
6373 319 1 14.959062 1.844239 2.428993
6374 319 1 15.929062 1.921363 2.545300
6375 319 1 16.899062 1.882797 2.479853
6376 319 1 17.869062 1.759062 2.406852
6377 319 1 18.839062 1.856629 2.536613
6378 319 1 19.809062 1.869453 2.557593
6379 319 1 20.779062 1.760002 2.550089
6380 319 1 21.749062 1.748760 2.535576
6381 320 1 -6.920766 -1.578953 -1.148954
6382 320 1 -5.950766 -1.546924 -1.160649
6383 320 1 -4.980766 -1.440950 -1.192362
6384 320 1 -4.010766 -1.423393 -1.137136
6385 320 1 -3.040766 -1.407482 -1.216482
6386 320 1 -2.070766 -1.386719 -1.088479
6387 320 1 -1.100766 -1.533078 -1.128430
6388 320 1 -0.130766 -1.407519 -1.158858
6389 320 1 0.839234 -1.556246 -1.204350
6390 320 1 1.809234 -1.386782 -1.251688
6391 320 1 2.779234 -1.453257 -1.124334
6392 320 1 3.749234 -1.440528 -1.085223
6393 320 1 4.719234 -1.410134 -1.172670
6394 320 1 5.689234 -1.516572 -1.144138
6395 320 1 6.659234 -1.462081 -1.080089
6396 320 1 7.629234 -1.534017 -1.169519
6397 320 1 8.599234 -1.496582 -1.161524
6398 320 1 9.569234 -1.551979 -1.055708
6399 320 1 10.539234 -1.520350 -1.083723
6400 320 1 11.509234 -1.412688 -1.236572
6401 321 1 -0.650375 -0.081121 8.533991
6402 321 1 0.319625 0.011213 8.612974
6403 321 1 1.289625 0.028422 8.554842
6404 321 1 2.259625 -0.004217 8.524272
6405 321 1 3.229625 -0.033204 8.500417
6406 321 1 4.199625 -0.061901 8.479300
6407 321 1 5.169625 -0.016975 8.527785
6408 321 1 6.139625 0.074457 8.501981
6409 321 1 7.109625 -0.006771 8.540453
6410 321 1 8.079625 -0.112078 8.636575
6411 321 1 9.049625 -0.090544 8.596226
6412 321 1 10.019625 0.017423 8.538086
6413 321 1 10.989625 -0.050789 8.603234
6414 321 1 11.959625 -0.028706 8.561920
6415 321 1 12.929625 0.073390 8.574499
6416 321 1 13.899625 -0.050393 8.609138
6417 321 1 14.869625 -0.100326 8.469622
6418 321 1 15.839625 -0.107845 8.638594
6419 321 1 16.809625 0.031952 8.588930
6420 321 1 17.779625 0.070760 8.622843
6421 322 1 3.978894 2.344679 -2.325650
6422 322 1 4.948894 2.247049 -2.180011
6423 322 1 5.918894 2.415489 -2.310315
6424 322 1 6.888894 2.358445 -2.220632
6425 322 1 7.858894 2.242892 -2.268145
6426 322 1 8.828894 2.321894 -2.255374
6427 322 1 9.798894 2.313120 -2.287716
6428 322 1 10.768894 2.372344 -2.220972
6429 322 1 11.738894 2.365172 -2.275037
6430 322 1 12.708894 2.331871 -2.221200
6431 322 1 13.678894 2.252512 -2.324701
6432 322 1 14.648894 2.294787 -2.287408
6433 322 1 15.618894 2.310271 -2.233452
6434 322 1 16.588894 2.407485 -2.334727
6435 322 1 17.558894 2.261019 -2.214193
6436 322 1 18.528894 2.316302 -2.172078
6437 322 1 19.498894 2.316032 -2.180475
6438 322 1 20.468894 2.357670 -2.218658
6439 322 1 21.438894 2.342253 -2.201645
6440 322 1 22.408894 2.267244 -2.204511
6441 323 1 -2.029426 6.156500 9.324071
6442 323 1 -1.059426 6.108650 9.372077
6443 323 1 -0.089426 6.045455 9.494066
6444 323 1 0.880574 6.080161 9.306722
6445 323 1 1.850574 6.085776 9.416748
6446 323 1 2.820574 6.169286 9.379140
6447 323 1 3.790574 6.132601 9.409589
6448 323 1 4.760574 6.056142 9.454545
6449 323 1 5.730574 6.085032 9.428478
6450 323 1 6.700574 6.200467 9.342227
6451 323 1 7.670574 6.138396 9.424819
6452 323 1 8.640574 6.136527 9.361247
6453 323 1 9.610574 6.139846 9.402098
6454 323 1 10.580574 6.088771 9.349324
6455 323 1 11.550574 6.207129 9.453941
6456 323 1 12.520574 6.081080 9.486792
6457 323 1 13.490574 6.117817 9.326415
6458 323 1 14.460574 6.202160 9.326959
6459 323 1 15.430574 6.218072 9.452094
6460 323 1 16.400574 6.105808 9.341169
6461 324 1 -9.514020 -3.670757 -4.116173
6462 324 1 -8.544020 -3.646095 -4.167911
6463 324 1 -7.574020 -3.503762 -4.193657
6464 324 1 -6.604020 -3.610986 -4.130622
6465 324 1 -5.634020 -3.474067 -4.091301
6466 324 1 -4.664020 -3.504958 -4.196434
6467 324 1 -3.694020 -3.506704 -4.092550
6468 324 1 -2.724020 -3.621963 -4.039006
6469 324 1 -1.754020 -3.655138 -4.163769
6470 324 1 -0.784020 -3.501240 -4.212727
6471 324 1 0.185980 -3.603354 -4.197332
6472 324 1 1.155980 -3.573890 -4.121837
6473 324 1 2.125980 -3.506705 -4.193426
6474 324 1 3.095980 -3.579860 -4.080796
6475 324 1 4.065980 -3.530614 -4.031975
6476 324 1 5.035980 -3.572944 -4.106971
6477 324 1 6.005980 -3.547935 -4.133366
6478 324 1 6.975980 -3.639418 -4.108667
6479 324 1 7.945980 -3.517750 -4.029006
6480 324 1 8.915980 -3.659090 -4.061868
6481 325 1 -8.597244 7.662339 -9.320059
6482 325 1 -7.627244 7.737311 -9.210155
6483 325 1 -6.657244 7.768099 -9.189183
6484 325 1 -5.687244 7.711445 -9.218030
6485 325 1 -4.717244 7.681939 -9.188566
6486 325 1 -3.747244 7.668696 -9.328803
6487 325 1 -2.777244 7.703779 -9.164955
6488 325 1 -1.807244 7.800028 -9.289103
6489 325 1 -0.837244 7.790068 -9.296958
6490 325 1 0.132756 7.653126 -9.280736
6491 325 1 1.102756 7.764698 -9.213461
6492 325 1 2.072756 7.822210 -9.258481
6493 325 1 3.042756 7.749353 -9.206549
6494 325 1 4.012756 7.786261 -9.241434
6495 325 1 4.982756 7.785146 -9.230684
6496 325 1 5.952756 7.709342 -9.154103
6497 325 1 6.922756 7.705315 -9.284489
6498 325 1 7.892756 7.729105 -9.298392
6499 325 1 8.862756 7.689060 -9.262333
6500 325 1 9.832756 7.701024 -9.268705
6501 326 1 -2.762886 -4.682147 -0.028270
6502 326 1 -1.792886 -4.649323 -0.034576
6503 326 1 -0.822886 -4.605816 -0.080410
6504 326 1 0.147114 -4.642938 -0.095200
6505 326 1 1.117114 -4.619531 -0.173798
6506 326 1 2.087114 -4.511580 -0.204704
6507 326 1 3.057114 -4.643198 -0.032843
6508 326 1 4.027114 -4.521959 -0.102638
6509 326 1 4.997114 -4.588370 -0.157245
6510 326 1 5.967114 -4.521574 -0.166311
6511 326 1 6.937114 -4.663489 -0.215353
6512 326 1 7.907114 -4.543828 -0.149117
6513 326 1 8.877114 -4.689351 -0.031995
6514 326 1 9.847114 -4.593835 -0.103876
6515 326 1 10.817114 -4.520659 -0.139398
6516 326 1 11.787114 -4.571310 -0.151447
6517 326 1 12.757114 -4.587542 -0.060480
6518 326 1 13.727114 -4.584907 -0.045856
6519 326 1 14.697114 -4.620768 -0.144595
6520 326 1 15.667114 -4.586024 -0.107995
6521 327 1 5.827985 1.135166 -5.571249
6522 327 1 6.797985 1.122473 -5.466555
6523 327 1 7.767985 1.237855 -5.472727
6524 327 1 8.737985 1.093740 -5.491995
6525 327 1 9.707985 1.208848 -5.500662
6526 327 1 10.677985 1.180501 -5.423687
6527 327 1 11.647985 1.096916 -5.560421
6528 327 1 12.617985 1.200973 -5.537675
6529 327 1 13.587985 1.140740 -5.414244
6530 327 1 14.557985 1.189978 -5.415789
6531 327 1 15.527985 1.148087 -5.480252
6532 327 1 16.497985 1.145392 -5.519857
6533 327 1 17.467985 1.163888 -5.398407
6534 327 1 18.437985 1.244857 -5.401241
6535 327 1 19.407985 1.075285 -5.491689
6536 327 1 20.377985 1.102988 -5.402500
6537 327 1 21.347985 1.090775 -5.532872
6538 327 1 22.317985 1.162613 -5.570598
6539 327 1 23.287985 1.084583 -5.435984
6540 327 1 24.257985 1.208739 -5.437438
6541 328 1 -8.833938 4.861480 4.691228
6542 328 1 -7.863938 4.870680 4.781152
6543 328 1 -6.893938 4.845515 4.720182
6544 328 1 -5.923938 4.944613 4.703413
6545 328 1 -4.953938 4.897541 4.826836
6546 328 1 -3.983938 4.810778 4.717463
6547 328 1 -3.013938 4.972066 4.756161
6548 328 1 -2.043938 4.812163 4.815365
6549 328 1 -1.073938 4.969892 4.765829
6550 328 1 -0.103938 4.884014 4.685836
6551 328 1 0.866062 4.938124 4.694191
6552 328 1 1.836062 4.820532 4.773976
6553 328 1 2.806062 4.828584 4.838652
6554 328 1 3.776062 4.988268 4.825408
6555 328 1 4.746062 4.959988 4.823376
6556 328 1 5.716062 4.992755 4.781469
6557 328 1 6.686062 4.810366 4.791259
6558 328 1 7.656062 4.856311 4.833191
6559 328 1 8.626062 4.924061 4.834702
6560 328 1 9.596062 4.878157 4.738692
6561 329 1 -1.747531 2.571015 1.801909
6562 329 1 -0.777531 2.541048 1.740143
6563 329 1 0.192469 2.430687 1.742192
6564 329 1 1.162469 2.562345 1.796105
6565 329 1 2.132469 2.480380 1.829519
6566 329 1 3.102469 2.465857 1.801740
6567 329 1 4.072469 2.528474 1.884929
6568 329 1 5.042469 2.583890 1.841026
6569 329 1 6.012469 2.458909 1.800938
6570 329 1 6.982469 2.440437 1.790421
6571 329 1 7.952469 2.593741 1.912825
6572 329 1 8.922469 2.445090 1.842636
6573 329 1 9.892469 2.528878 1.812880
6574 329 1 10.862469 2.472942 1.801624
6575 329 1 11.832469 2.431629 1.892199
6576 329 1 12.802469 2.617657 1.859123
6577 329 1 13.772469 2.487364 1.720187
6578 329 1 14.742469 2.547272 1.765443
6579 329 1 15.712469 2.605547 1.839037
6580 329 1 16.682469 2.445447 1.843571
6581 330 1 -8.541346 -9.103936 7.602787
6582 330 1 -7.571346 -9.195865 7.746405
6583 330 1 -6.601346 -9.167147 7.684413
6584 330 1 -5.631346 -9.065616 7.738555
6585 330 1 -4.661346 -9.067679 7.663266
6586 330 1 -3.691346 -9.094698 7.737615
6587 330 1 -2.721346 -9.177815 7.682181
6588 330 1 -1.751346 -9.167817 7.594166
6589 330 1 -0.781346 -9.207778 7.618860
6590 330 1 0.188654 -9.096167 7.636055
6591 330 1 1.158654 -9.153595 7.605609
6592 330 1 2.128654 -9.244527 7.630622
6593 330 1 3.098654 -9.197503 7.671842
6594 330 1 4.068654 -9.129189 7.775482
6595 330 1 5.038654 -9.086227 7.675651
6596 330 1 6.008654 -9.160272 7.732228
6597 330 1 6.978654 -9.059591 7.656876
6598 330 1 7.948654 -9.131894 7.674252
6599 330 1 8.918654 -9.111078 7.728270
6600 330 1 9.888654 -9.182787 7.685475
6601 331 1 3.741666 4.039683 -4.220828
6602 331 1 4.711666 4.044886 -4.363166
6603 331 1 5.681666 3.986013 -4.198190
6604 331 1 6.651666 4.009315 -4.320354
6605 331 1 7.621666 3.917742 -4.282684
6606 331 1 8.591666 3.967878 -4.227164
6607 331 1 9.561666 3.931695 -4.302946
6608 331 1 10.531666 3.986943 -4.369055
6609 331 1 11.501666 3.925032 -4.209200
6610 331 1 12.471666 4.088179 -4.345457
6611 331 1 13.441666 4.077710 -4.358139
6612 331 1 14.411666 3.920247 -4.212535
6613 331 1 15.381666 3.937520 -4.226888
6614 331 1 16.351666 4.046584 -4.340248
6615 331 1 17.321666 4.092740 -4.337987
6616 331 1 18.291666 4.105726 -4.268701
6617 331 1 19.261666 3.980055 -4.333900
6618 331 1 20.231666 3.921257 -4.333686
6619 331 1 21.201666 3.996556 -4.384168
6620 331 1 22.171666 4.077102 -4.298546
6621 332 1 2.764327 1.786976 1.026417
6622 332 1 3.734327 1.763709 1.088559
6623 332 1 4.704327 1.817250 1.005960
6624 332 1 5.674327 1.663296 1.042147
6625 332 1 6.644327 1.712586 1.071980
6626 332 1 7.614327 1.726189 1.051094
6627 332 1 8.584327 1.651567 1.029825
6628 332 1 9.554327 1.759404 1.002571
6629 332 1 10.524327 1.708476 1.105089
6630 332 1 11.494327 1.798401 1.060405
6631 332 1 12.464327 1.662841 1.145994
6632 332 1 13.434327 1.718878 0.972004
6633 332 1 14.404327 1.735026 1.152406
6634 332 1 15.374327 1.814217 1.006211
6635 332 1 16.344327 1.734521 1.171114
6636 332 1 17.314327 1.660649 1.103138
6637 332 1 18.284327 1.680967 1.085257
6638 332 1 19.254327 1.798035 1.097695
6639 332 1 20.224327 1.761054 1.048860
6640 332 1 21.194327 1.806872 0.994182
6641 333 1 -9.030630 4.538645 -8.430457
6642 333 1 -8.060630 4.384469 -8.309658
6643 333 1 -7.090630 4.381820 -8.297099
6644 333 1 -6.120630 4.430431 -8.340235
6645 333 1 -5.150630 4.429685 -8.242898
6646 333 1 -4.180630 4.405861 -8.295497
6647 333 1 -3.210630 4.415898 -8.310094
6648 333 1 -2.240630 4.483599 -8.435299
6649 333 1 -1.270630 4.440576 -8.402263
6650 333 1 -0.300630 4.443321 -8.269487
6651 333 1 0.669370 4.367423 -8.282502
6652 333 1 1.639370 4.362895 -8.412243
6653 333 1 2.609370 4.422039 -8.392946
6654 333 1 3.579370 4.471848 -8.427966
6655 333 1 4.549370 4.428500 -8.294647
6656 333 1 5.519370 4.530270 -8.323531
6657 333 1 6.489370 4.535179 -8.337571
6658 333 1 7.459370 4.491746 -8.269583
6659 333 1 8.429370 4.383878 -8.345233
6660 333 1 9.399370 4.481695 -8.326893
6661 334 1 -5.150797 -7.044623 -4.295510
6662 334 1 -4.180797 -7.085333 -4.381413
6663 334 1 -3.210797 -7.129654 -4.214019
6664 334 1 -2.240797 -7.196775 -4.337968
6665 334 1 -1.270797 -7.054601 -4.264602
6666 334 1 -0.300797 -7.199573 -4.221259
6667 334 1 0.669203 -7.126493 -4.282065
6668 334 1 1.639203 -7.153678 -4.231890
6669 334 1 2.609203 -7.071219 -4.245014
6670 334 1 3.579203 -7.139385 -4.336591
6671 334 1 4.549203 -7.017296 -4.196143
6672 334 1 5.519203 -7.099426 -4.259516
6673 334 1 6.489203 -7.154565 -4.209776
6674 334 1 7.459203 -7.171919 -4.222040
6675 334 1 8.429203 -7.196752 -4.377111
6676 334 1 9.399203 -7.191413 -4.314669
6677 334 1 10.369203 -7.166157 -4.368899
6678 334 1 11.339203 -7.017192 -4.331579
6679 334 1 12.309203 -7.091892 -4.284793
6680 334 1 13.279203 -7.108318 -4.267186
6681 335 1 -5.294165 9.209575 -6.282902
6682 335 1 -4.324165 9.192224 -6.375935
6683 335 1 -3.354165 9.328539 -6.297740
6684 335 1 -2.384165 9.186564 -6.323640
6685 335 1 -1.414165 9.180754 -6.386942
6686 335 1 -0.444165 9.181215 -6.344148
6687 335 1 0.525835 9.285057 -6.311363
6688 335 1 1.495835 9.202502 -6.378050
6689 335 1 2.465835 9.215389 -6.365595
6690 335 1 3.435835 9.349077 -6.360900
6691 335 1 4.405835 9.250000 -6.312816
6692 335 1 5.375835 9.239775 -6.418926
6693 335 1 6.345835 9.295392 -6.401259
6694 335 1 7.315835 9.266671 -6.352812
6695 335 1 8.285835 9.204717 -6.258109
6696 335 1 9.255835 9.285981 -6.402371
6697 335 1 10.225835 9.278255 -6.289557
6698 335 1 11.195835 9.157208 -6.285942
6699 335 1 12.165835 9.315044 -6.398891
6700 335 1 13.135835 9.303670 -6.301119
6701 336 1 -2.413034 2.330190 -4.281354
6702 336 1 -1.443034 2.350055 -4.208861
6703 336 1 -0.473034 2.264568 -4.254697
6704 336 1 0.496966 2.457623 -4.237628
6705 336 1 1.466966 2.443687 -4.357985
6706 336 1 2.436966 2.436243 -4.347684
6707 336 1 3.406966 2.310142 -4.299861
6708 336 1 4.376966 2.415726 -4.337420
6709 336 1 5.346966 2.316199 -4.248158
6710 336 1 6.316966 2.311213 -4.315222
6711 336 1 7.286966 2.405686 -4.264202
6712 336 1 8.256966 2.352268 -4.191913
6713 336 1 9.226966 2.420298 -4.245617
6714 336 1 10.196966 2.398611 -4.312547
6715 336 1 11.166966 2.295262 -4.365432
6716 336 1 12.136966 2.270632 -4.321073
6717 336 1 13.106966 2.399160 -4.264878
6718 336 1 14.076966 2.455347 -4.338377
6719 336 1 15.046966 2.281892 -4.234620
6720 336 1 16.016966 2.443476 -4.190194
6721 337 1 9.514160 -6.283415 -8.508091
6722 337 1 10.484160 -6.360944 -8.469174
6723 337 1 11.454160 -6.182627 -8.592657
6724 337 1 12.424160 -6.300918 -8.438925
6725 337 1 13.394160 -6.193689 -8.619168
6726 337 1 14.364160 -6.284582 -8.586440
6727 337 1 15.334160 -6.191545 -8.490801
6728 337 1 16.304160 -6.226682 -8.598303
6729 337 1 17.274160 -6.248596 -8.474958
6730 337 1 18.244160 -6.222623 -8.494220
6731 337 1 19.214160 -6.253829 -8.627155
6732 337 1 20.184160 -6.228519 -8.575576
6733 337 1 21.154160 -6.231212 -8.565758
6734 337 1 22.124160 -6.241786 -8.604063
6735 337 1 23.094160 -6.184900 -8.610576
6736 337 1 24.064160 -6.315730 -8.474266
6737 337 1 25.034160 -6.344890 -8.532183
6738 337 1 26.004160 -6.275269 -8.521014
6739 337 1 26.974160 -6.239927 -8.444855
6740 337 1 27.944160 -6.286061 -8.521578
6741 338 1 -9.384481 -9.837633 -3.598036
6742 338 1 -8.414481 -9.771562 -3.631867
6743 338 1 -7.444481 -9.785193 -3.591611
6744 338 1 -6.474481 -9.682833 -3.673132
6745 338 1 -5.504481 -9.775982 -3.566441
6746 338 1 -4.534481 -9.775893 -3.557924
6747 338 1 -3.564481 -9.861507 -3.577567
6748 338 1 -2.594481 -9.719619 -3.540590
6749 338 1 -1.624481 -9.771515 -3.607431
6750 338 1 -0.654481 -9.698266 -3.638566
6751 338 1 0.315519 -9.805858 -3.593250
6752 338 1 1.285519 -9.832858 -3.544373
6753 338 1 2.255519 -9.839240 -3.659147
6754 338 1 3.225519 -9.787063 -3.518308
6755 338 1 4.195519 -9.672715 -3.706479
6756 338 1 5.165519 -9.847531 -3.682916
6757 338 1 6.135519 -9.711112 -3.695093
6758 338 1 7.105519 -9.704425 -3.708292
6759 338 1 8.075519 -9.718484 -3.555036
6760 338 1 9.045519 -9.769995 -3.521002
6761 339 1 -5.962099 7.147637 9.043026
6762 339 1 -4.992099 7.115198 9.111908
6763 339 1 -4.022099 7.107089 8.966465
6764 339 1 -3.052099 7.113332 8.993080
6765 339 1 -2.082099 7.145672 9.108598
6766 339 1 -1.112099 7.078913 9.092219
6767 339 1 -0.142099 7.142383 9.069868
6768 339 1 0.827901 7.109364 9.028080
6769 339 1 1.797901 7.208696 9.070808
6770 339 1 2.767901 7.260412 9.065811
6771 339 1 3.737901 7.122354 9.081495
6772 339 1 4.707901 7.097803 8.993288
6773 339 1 5.677901 7.266202 9.046848
6774 339 1 6.647901 7.212852 8.999266
6775 339 1 7.617901 7.172776 8.941025
6776 339 1 8.587901 7.119178 8.971123
6777 339 1 9.557901 7.149764 9.117646
6778 339 1 10.527901 7.198679 8.947487
6779 339 1 11.497901 7.207295 9.101402
6780 339 1 12.467901 7.179314 9.121135
6781 340 1 2.352958 4.145653 6.897144
6782 340 1 3.322958 4.221199 6.790798
6783 340 1 4.292958 4.137664 6.886113
6784 340 1 5.262958 4.139981 6.844524
6785 340 1 6.232958 4.139009 6.861125
6786 340 1 7.202958 4.224713 6.818265
6787 340 1 8.172958 4.215270 6.760897
6788 340 1 9.142958 4.252688 6.855744
6789 340 1 10.112958 4.253682 6.770017
6790 340 1 11.082958 4.229826 6.939297
6791 340 1 12.052958 4.211841 6.774524
6792 340 1 13.022958 4.113811 6.804704
6793 340 1 13.992958 4.199594 6.761570
6794 340 1 14.962958 4.252868 6.892433
6795 340 1 15.932958 4.136602 6.802286
6796 340 1 16.902958 4.272794 6.829294
6797 340 1 17.872958 4.224362 6.770723
6798 340 1 18.842958 4.255337 6.902153
6799 340 1 19.812958 4.151803 6.920509
6800 340 1 20.782958 4.179652 6.921632
6801 341 1 -3.694690 1.132804 7.200909
6802 341 1 -2.724690 1.042889 7.280553
6803 341 1 -1.754690 1.127820 7.136101
6804 341 1 -0.784690 1.110573 7.241236
6805 341 1 0.185310 0.974040 7.141994
6806 341 1 1.155310 1.112755 7.192887
6807 341 1 2.125310 1.159101 7.199374
6808 341 1 3.095310 1.014913 7.334054
6809 341 1 4.065310 1.066346 7.170535
6810 341 1 5.035310 1.009880 7.193923
6811 341 1 6.005310 1.003304 7.262456
6812 341 1 6.975310 0.999092 7.162257
6813 341 1 7.945310 1.135848 7.263468
6814 341 1 8.915310 1.131297 7.227230
6815 341 1 9.885310 1.034024 7.205917
6816 341 1 10.855310 0.971165 7.187956
6817 341 1 11.825310 1.058597 7.179363
6818 341 1 12.795310 1.010296 7.242691
6819 341 1 13.765310 1.028604 7.144173
6820 341 1 14.735310 1.089500 7.288944
6821 342 1 -8.230371 5.001189 8.586007
6822 342 1 -7.260371 4.855029 8.560094
6823 342 1 -6.290371 4.930121 8.587024
6824 342 1 -5.320371 4.905750 8.525919
6825 342 1 -4.350371 4.988741 8.581541
6826 342 1 -3.380371 4.824412 8.497124
6827 342 1 -2.410371 4.989708 8.537775
6828 342 1 -1.440371 4.828168 8.415569
6829 342 1 -0.470371 4.991767 8.529796
6830 342 1 0.499629 4.911877 8.424452
6831 342 1 1.469629 4.863674 8.408085
6832 342 1 2.439629 4.890772 8.450843
6833 342 1 3.409629 5.008599 8.493394
6834 342 1 4.379629 4.989291 8.435006
6835 342 1 5.349629 4.855175 8.416549
6836 342 1 6.319629 4.859949 8.534011
6837 342 1 7.289629 4.964860 8.512643
6838 342 1 8.259629 4.876772 8.488631
6839 342 1 9.229629 4.920894 8.497584
6840 342 1 10.199629 4.974424 8.495589
6841 343 1 4.479351 -3.177807 1.804168
6842 343 1 5.449351 -3.222163 1.725858
6843 343 1 6.419351 -3.300125 1.753956
6844 343 1 7.389351 -3.311023 1.864784
6845 343 1 8.359351 -3.291439 1.870219
6846 343 1 9.329351 -3.168546 1.841195
6847 343 1 10.299351 -3.271775 1.680241
6848 343 1 11.269351 -3.244443 1.831629
6849 343 1 12.239351 -3.312198 1.713250
6850 343 1 13.209351 -3.245379 1.820478
6851 343 1 14.179351 -3.315299 1.745323
6852 343 1 15.149351 -3.165927 1.702727
6853 343 1 16.119351 -3.252183 1.870254
6854 343 1 17.089351 -3.256578 1.871173
6855 343 1 18.059351 -3.281163 1.785705
6856 343 1 19.029351 -3.177570 1.788575
6857 343 1 19.999351 -3.316994 1.769975
6858 343 1 20.969351 -3.192548 1.854934
6859 343 1 21.939351 -3.298803 1.846727
6860 343 1 22.909351 -3.236355 1.772848
6861 344 1 -7.528622 -8.276543 -8.627922
6862 344 1 -6.558622 -8.093907 -8.573843
6863 344 1 -5.588622 -8.264455 -8.523833
6864 344 1 -4.618622 -8.242988 -8.511455
6865 344 1 -3.648622 -8.161007 -8.668088
6866 344 1 -2.678622 -8.112120 -8.522612
6867 344 1 -1.708622 -8.189928 -8.646146
6868 344 1 -0.738622 -8.110625 -8.536292
6869 344 1 0.231378 -8.208156 -8.592112
6870 344 1 1.201378 -8.103883 -8.589905
6871 344 1 2.171378 -8.200497 -8.518845
6872 344 1 3.141378 -8.208420 -8.616185
6873 344 1 4.111378 -8.216440 -8.605175
6874 344 1 5.081378 -8.280852 -8.591293
6875 344 1 6.051378 -8.143120 -8.606914
6876 344 1 7.021378 -8.276274 -8.533103
6877 344 1 7.991378 -8.156620 -8.547043
6878 344 1 8.961378 -8.109961 -8.558687
6879 344 1 9.931378 -8.168307 -8.656372
6880 344 1 10.901378 -8.146844 -8.669916
6881 345 1 -8.400531 -8.797976 -4.200012
6882 345 1 -7.430531 -8.675559 -4.193516
6883 345 1 -6.460531 -8.724706 -4.345516
6884 345 1 -5.490531 -8.824213 -4.339576
6885 345 1 -4.520531 -8.692321 -4.205315
6886 345 1 -3.550531 -8.705262 -4.204846
6887 345 1 -2.580531 -8.769330 -4.352575
6888 345 1 -1.610531 -8.857973 -4.220155
6889 345 1 -0.640531 -8.703985 -4.301080
6890 345 1 0.329469 -8.715812 -4.383097
6891 345 1 1.299469 -8.742162 -4.226742
6892 345 1 2.269469 -8.734049 -4.277282
6893 345 1 3.239469 -8.834290 -4.367803
6894 345 1 4.209469 -8.772654 -4.384137
6895 345 1 5.179469 -8.675486 -4.246029
6896 345 1 6.149469 -8.857492 -4.305611
6897 345 1 7.119469 -8.817031 -4.203065
6898 345 1 8.089469 -8.767223 -4.250014
6899 345 1 9.059469 -8.745956 -4.289627
6900 345 1 10.029469 -8.765700 -4.227271
6901 346 1 3.733699 8.377526 -8.428259
6902 346 1 4.703699 8.377038 -8.482395
6903 346 1 5.673699 8.376346 -8.398368
6904 346 1 6.643699 8.324323 -8.390163
6905 346 1 7.613699 8.361567 -8.380482
6906 346 1 8.583699 8.211289 -8.470801
6907 346 1 9.553699 8.320437 -8.511709
6908 346 1 10.523699 8.271169 -8.440913
6909 346 1 11.493699 8.220218 -8.458840
6910 346 1 12.463699 8.314833 -8.358457
6911 346 1 13.433699 8.344634 -8.459883
6912 346 1 14.403699 8.319255 -8.549878
6913 346 1 15.373699 8.372013 -8.482653
6914 346 1 16.343699 8.193864 -8.456801
6915 346 1 17.313699 8.334571 -8.394576
6916 346 1 18.283699 8.249843 -8.445743
6917 346 1 19.253699 8.231378 -8.450696
6918 346 1 20.223699 8.233801 -8.400244
6919 346 1 21.193699 8.351926 -8.441771
6920 346 1 22.163699 8.224058 -8.441086
6921 347 1 6.387205 -4.756503 -9.407288
6922 347 1 7.357205 -4.695978 -9.382618
6923 347 1 8.327205 -4.648429 -9.421355
6924 347 1 9.297205 -4.593443 -9.518990
6925 347 1 10.267205 -4.595515 -9.458723
6926 347 1 11.237205 -4.735392 -9.479081
6927 347 1 12.207205 -4.719135 -9.383506
6928 347 1 13.177205 -4.692056 -9.382916
6929 347 1 14.147205 -4.714322 -9.404686
6930 347 1 15.117205 -4.611735 -9.369842
6931 347 1 16.087205 -4.749736 -9.439368
6932 347 1 17.057205 -4.686565 -9.479928
6933 347 1 18.027205 -4.596615 -9.359170
6934 347 1 18.997205 -4.700958 -9.400272
6935 347 1 19.967205 -4.701033 -9.439191
6936 347 1 20.937205 -4.636004 -9.404534
6937 347 1 21.907205 -4.640789 -9.419213
6938 347 1 22.877205 -4.751387 -9.389522
6939 347 1 23.847205 -4.663875 -9.447440
6940 347 1 24.817205 -4.727062 -9.448042
6941 348 1 -7.974410 8.536607 5.119282
6942 348 1 -7.004410 8.542497 5.171039
6943 348 1 -6.034410 8.508074 5.141347
6944 348 1 -5.064410 8.513463 5.085782
6945 348 1 -4.094410 8.560041 5.204180
6946 348 1 -3.124410 8.524884 5.123963
6947 348 1 -2.154410 8.688565 5.169770
6948 348 1 -1.184410 8.621281 5.178404
6949 348 1 -0.214410 8.500944 5.103399
6950 348 1 0.755590 8.566345 5.221586
6951 348 1 1.725590 8.669503 5.159902
6952 348 1 2.695590 8.587041 5.226094
6953 348 1 3.665590 8.531982 5.223580
6954 348 1 4.635590 8.639386 5.205131
6955 348 1 5.605590 8.575442 5.104536
6956 348 1 6.575590 8.502933 5.134396
6957 348 1 7.545590 8.630876 5.217214
6958 348 1 8.515590 8.676836 5.232606
6959 348 1 9.485590 8.674512 5.230723
6960 348 1 10.455590 8.621645 5.157919
6961 349 1 -3.805150 5.108832 -8.309645
6962 349 1 -2.835150 5.105257 -8.314995
6963 349 1 -1.865150 4.922159 -8.296486
6964 349 1 -0.895150 5.018228 -8.274577
6965 349 1 0.074850 4.943555 -8.268086
6966 349 1 1.044850 5.014778 -8.189093
6967 349 1 2.014850 5.106545 -8.354635
6968 349 1 2.984850 5.041365 -8.197914
6969 349 1 3.954850 5.091444 -8.173214
6970 349 1 4.924850 5.077839 -8.271960
6971 349 1 5.894850 5.029366 -8.350176
6972 349 1 6.864850 5.012193 -8.294632
6973 349 1 7.834850 5.058145 -8.163753
6974 349 1 8.804850 5.022872 -8.221973
6975 349 1 9.774850 4.960935 -8.245896
6976 349 1 10.744850 5.010714 -8.317778
6977 349 1 11.714850 4.952388 -8.253531
6978 349 1 12.684850 5.024376 -8.220508
6979 349 1 13.654850 5.087957 -8.250465
6980 349 1 14.624850 4.943749 -8.221973
6981 350 1 -9.809117 1.662852 0.943110
6982 350 1 -8.839117 1.644663 0.968146
6983 350 1 -7.869117 1.574314 0.928451
6984 350 1 -6.899117 1.606801 0.929362
6985 350 1 -5.929117 1.661088 1.065585
6986 350 1 -4.959117 1.553333 0.948710
6987 350 1 -3.989117 1.629340 0.964738
6988 350 1 -3.019117 1.646700 1.038296
6989 350 1 -2.049117 1.589369 0.950803
6990 350 1 -1.079117 1.686789 0.938753
6991 350 1 -0.109117 1.626127 1.017523
6992 350 1 0.860883 1.661245 0.904261
6993 350 1 1.830883 1.685938 0.953706
6994 350 1 2.800883 1.670454 1.044576
6995 350 1 3.770883 1.622106 1.013884
6996 350 1 4.740883 1.613504 1.048415
6997 350 1 5.710883 1.667083 0.913566
6998 350 1 6.680883 1.635547 0.929094
6999 350 1 7.650883 1.567137 1.051213
7000 350 1 8.620883 1.612769 0.959679
7001 351 1 7.140893 -4.271557 -2.967516
7002 351 1 8.110893 -4.363708 -3.039202
7003 351 1 9.080893 -4.297818 -2.883485
7004 351 1 10.050893 -4.448891 -2.906370
7005 351 1 11.020893 -4.290265 -3.047923
7006 351 1 11.990893 -4.399265 -2.945961
7007 351 1 12.960893 -4.373613 -3.017377
7008 351 1 13.930893 -4.285193 -2.930617
7009 351 1 14.900893 -4.362666 -2.970071
7010 351 1 15.870893 -4.296496 -2.940656
7011 351 1 16.840893 -4.346175 -2.872399
7012 351 1 17.810893 -4.428076 -2.879539
7013 351 1 18.780893 -4.304169 -2.881889
7014 351 1 19.750893 -4.461953 -2.986966
7015 351 1 20.720893 -4.412515 -3.029652
7016 351 1 21.690893 -4.433813 -3.022906
7017 351 1 22.660893 -4.275561 -3.015425
7018 351 1 23.630893 -4.420181 -3.019599
7019 351 1 24.600893 -4.359020 -2.864160
7020 351 1 25.570893 -4.364334 -3.055148
7021 352 1 9.525526 9.899851 0.069753
7022 352 1 10.495526 9.913969 -0.005266
7023 352 1 11.465526 9.791976 0.002255
7024 352 1 12.435526 9.798526 -0.020525
7025 352 1 13.405526 9.740607 -0.007540
7026 352 1 14.375526 9.759506 -0.112889
7027 352 1 15.345526 9.750623 -0.046545
7028 352 1 16.315526 9.725822 -0.078253
7029 352 1 17.285526 9.863816 -0.092574
7030 352 1 18.255526 9.864016 -0.032986
7031 352 1 19.225526 9.850667 0.012046
7032 352 1 20.195526 9.825351 -0.018810
7033 352 1 21.165526 9.848013 -0.077564
7034 352 1 22.135526 9.812903 -0.048016
7035 352 1 23.105526 9.847842 0.019245
7036 352 1 24.075526 9.884262 0.032361
7037 352 1 25.045526 9.758189 0.012100
7038 352 1 26.015526 9.751855 0.007180
7039 352 1 26.985526 9.919437 -0.008089
7040 352 1 27.955526 9.780707 -0.036108
7041 353 1 7.283157 2.755865 -1.198971
7042 353 1 8.253157 2.639257 -1.068959
7043 353 1 9.223157 2.593611 -1.052147
7044 353 1 10.193157 2.653515 -1.152723
7045 353 1 11.163157 2.759407 -1.178251
7046 353 1 12.133157 2.647097 -1.171684
7047 353 1 13.103157 2.746469 -1.134749
7048 353 1 14.073157 2.625221 -1.122569
7049 353 1 15.043157 2.641612 -1.197851
7050 353 1 16.013157 2.739088 -1.056345
7051 353 1 16.983157 2.593771 -1.084621
7052 353 1 17.953157 2.743338 -1.123140
7053 353 1 18.923157 2.605874 -1.114874
7054 353 1 19.893157 2.671212 -1.168945
7055 353 1 20.863157 2.635413 -1.152937
7056 353 1 21.833157 2.756647 -1.178335
7057 353 1 22.803157 2.655324 -1.144859
7058 353 1 23.773157 2.721302 -1.102692
7059 353 1 24.743157 2.695383 -1.024140
7060 353 1 25.713157 2.721109 -1.176332
7061 354 1 6.651972 -8.302522 -8.140600
7062 354 1 7.621972 -8.342934 -8.009187
7063 354 1 8.591972 -8.460453 -8.148175
7064 354 1 9.561972 -8.491249 -7.986932
7065 354 1 10.531972 -8.297178 -8.098266
7066 354 1 11.501972 -8.362769 -8.183893
7067 354 1 12.471972 -8.337143 -8.007499
7068 354 1 13.441972 -8.416443 -8.123184
7069 354 1 14.411972 -8.435010 -8.120264
7070 354 1 15.381972 -8.463766 -8.032420
7071 354 1 16.351972 -8.326242 -8.115354
7072 354 1 17.321972 -8.396753 -8.120776
7073 354 1 18.291972 -8.426636 -8.121304
7074 354 1 19.261972 -8.359886 -8.161999
7075 354 1 20.231972 -8.331183 -8.020425
7076 354 1 21.201972 -8.378517 -8.050713
7077 354 1 22.171972 -8.391148 -8.029002
7078 354 1 23.141972 -8.441515 -8.084370
7079 354 1 24.111972 -8.421742 -8.048111
7080 354 1 25.081972 -8.311318 -8.035809
7081 355 1 6.300398 2.181359 -9.122327
7082 355 1 7.270398 2.106194 -9.135612
7083 355 1 8.240398 2.187830 -9.266016
7084 355 1 9.210398 2.216348 -9.075199
7085 355 1 10.180398 2.236951 -9.224174
7086 355 1 11.150398 2.264230 -9.149192
7087 355 1 12.120398 2.112562 -9.101675
7088 355 1 13.090398 2.148330 -9.235297
7089 355 1 14.060398 2.144343 -9.245102
7090 355 1 15.030398 2.081909 -9.221933
7091 355 1 16.000398 2.186776 -9.168754
7092 355 1 16.970398 2.212222 -9.132745
7093 355 1 17.940398 2.140469 -9.158286
7094 355 1 18.910398 2.211472 -9.106380
7095 355 1 19.880398 2.077151 -9.107353
7096 355 1 20.850398 2.090207 -9.247595
7097 355 1 21.820398 2.262680 -9.106346
7098 355 1 22.790398 2.229491 -9.125735
7099 355 1 23.760398 2.235947 -9.142210
7100 355 1 24.730398 2.207619 -9.205582
7101 356 1 -1.747460 6.326608 -4.663053
7102 356 1 -0.777460 6.402602 -4.671303
7103 356 1 0.192540 6.376595 -4.641276
7104 356 1 1.162540 6.372939 -4.765446
7105 356 1 2.132540 6.439359 -4.687097
7106 356 1 3.102540 6.318469 -4.711800
7107 356 1 4.072540 6.417696 -4.688504
7108 356 1 5.042540 6.372568 -4.761035
7109 356 1 6.012540 6.324131 -4.725111
7110 356 1 6.982540 6.367064 -4.616501
7111 356 1 7.952540 6.281655 -4.625046
7112 356 1 8.922540 6.294817 -4.674578
7113 356 1 9.892540 6.273758 -4.679931
7114 356 1 10.862540 6.400440 -4.733615
7115 356 1 11.832540 6.404342 -4.711996
7116 356 1 12.802540 6.263218 -4.632579
7117 356 1 13.772540 6.387094 -4.653726
7118 356 1 14.742540 6.282741 -4.586488
7119 356 1 15.712540 6.445130 -4.644378
7120 356 1 16.682540 6.405641 -4.584346
7121 357 1 2.376859 3.539208 4.529633
7122 357 1 3.346859 3.566847 4.563086
7123 357 1 4.316859 3.430061 4.672517
7124 357 1 5.286859 3.580939 4.599894
7125 357 1 6.256859 3.403926 4.615500
7126 357 1 7.226859 3.474440 4.488023
7127 357 1 8.196859 3.457543 4.605382
7128 357 1 9.166859 3.563283 4.577780
7129 357 1 10.136859 3.459270 4.644383
7130 357 1 11.106859 3.571262 4.495554
7131 357 1 12.076859 3.527265 4.650147
7132 357 1 13.046859 3.421693 4.595195
7133 357 1 14.016859 3.563079 4.529670
7134 357 1 14.986859 3.434157 4.555808
7135 357 1 15.956859 3.538862 4.644781
7136 357 1 16.926859 3.444322 4.505117
7137 357 1 17.896859 3.444503 4.576900
7138 357 1 18.866859 3.590295 4.578484
7139 357 1 19.836859 3.506983 4.672155
7140 357 1 20.806859 3.458245 4.627908
7141 358 1 5.240197 5.264826 5.068780
7142 358 1 6.210197 5.158904 5.023758
7143 358 1 7.180197 5.312977 4.931174
7144 358 1 8.150197 5.176711 4.935218
7145 358 1 9.120197 5.292387 5.001310
7146 358 1 10.090197 5.229776 4.968012
7147 358 1 11.060197 5.289215 4.926224
7148 358 1 12.030197 5.235363 5.041752
7149 358 1 13.000197 5.195295 4.906974
7150 358 1 13.970197 5.246392 4.909983
7151 358 1 14.940197 5.279431 5.000024
7152 358 1 15.910197 5.256626 5.074681
7153 358 1 16.880197 5.187588 4.974198
7154 358 1 17.850197 5.276200 5.012958
7155 358 1 18.820197 5.291258 4.902240
7156 358 1 19.790197 5.265085 5.019141
7157 358 1 20.760197 5.189223 5.083329
7158 358 1 21.730197 5.248860 4.972238
7159 358 1 22.700197 5.313961 5.068531
7160 358 1 23.670197 5.282835 4.897976
7161 359 1 -2.245412 -6.245146 -0.449700
7162 359 1 -1.275412 -6.303326 -0.509198
7163 359 1 -0.305412 -6.260814 -0.464082
7164 359 1 0.664588 -6.396355 -0.482298
7165 359 1 1.634588 -6.311655 -0.416124
7166 359 1 2.604588 -6.303249 -0.392064
7167 359 1 3.574588 -6.349456 -0.439965
7168 359 1 4.544588 -6.295413 -0.416680
7169 359 1 5.514588 -6.323093 -0.435170
7170 359 1 6.484588 -6.225794 -0.365686
7171 359 1 7.454588 -6.273847 -0.389421
7172 359 1 8.424588 -6.352408 -0.533338
7173 359 1 9.394588 -6.400850 -0.493260
7174 359 1 10.364588 -6.399085 -0.514764
7175 359 1 11.334588 -6.400238 -0.412969
7176 359 1 12.304588 -6.320622 -0.526003
7177 359 1 13.274588 -6.310620 -0.526713
7178 359 1 14.244588 -6.383216 -0.455524
7179 359 1 15.214588 -6.240406 -0.513913
7180 359 1 16.184588 -6.358051 -0.373035
7181 360 1 -4.874674 3.038924 -0.109992
7182 360 1 -3.904674 2.932499 -0.106835
7183 360 1 -2.934674 3.017996 -0.084356
7184 360 1 -1.964674 2.848233 -0.111947
7185 360 1 -0.994674 2.992377 -0.136607
7186 360 1 -0.024674 3.032532 -0.086847
7187 360 1 0.945326 2.978957 -0.178848
7188 360 1 1.915326 2.922269 -0.201815
7189 360 1 2.885326 2.900070 -0.131304
7190 360 1 3.855326 3.010353 -0.043728
7191 360 1 4.825326 2.931977 -0.082328
7192 360 1 5.795326 3.022393 -0.044037
7193 360 1 6.765326 2.969496 -0.201803
7194 360 1 7.735326 2.893391 -0.188320
7195 360 1 8.705326 2.860325 -0.087879
7196 360 1 9.675326 2.878760 -0.054015
7197 360 1 10.645326 2.981155 -0.099627
7198 360 1 11.615326 2.995483 -0.120202
7199 360 1 12.585326 2.985590 -0.093502
7200 360 1 13.555326 3.043161 -0.130195
7201 361 1 -3.521543 9.612070 -9.782370
7202 361 1 -2.551543 9.516389 -9.898291
7203 361 1 -1.581543 9.590786 -9.878443
7204 361 1 -0.611543 9.440423 -9.942732
7205 361 1 0.358457 9.575216 -9.817419
7206 361 1 1.328457 9.538428 -9.894230
7207 361 1 2.298457 9.570559 -9.805390
7208 361 1 3.268457 9.533766 -9.900328
7209 361 1 4.238457 9.536532 -9.956324
7210 361 1 5.208457 9.462180 -9.779357
7211 361 1 6.178457 9.461990 -9.774504
7212 361 1 7.148457 9.490286 -9.858694
7213 361 1 8.118457 9.443126 -9.826663
7214 361 1 9.088457 9.438390 -9.927526
7215 361 1 10.058457 9.606211 -9.824924
7216 361 1 11.028457 9.430010 -9.823434
7217 361 1 11.998457 9.564445 -9.779285
7218 361 1 12.968457 9.542783 -9.869012
7219 361 1 13.938457 9.478661 -9.780473
7220 361 1 14.908457 9.521822 -9.863794
7221 362 1 1.606819 -9.649376 7.854684
7222 362 1 2.576819 -9.765623 7.719856
7223 362 1 3.546819 -9.796190 7.850567
7224 362 1 4.516819 -9.707629 7.802830
7225 362 1 5.486819 -9.689876 7.722623
7226 362 1 6.456819 -9.726398 7.761703
7227 362 1 7.426819 -9.730545 7.707736
7228 362 1 8.396819 -9.767814 7.680580
7229 362 1 9.366819 -9.714096 7.823752
7230 362 1 10.336819 -9.756807 7.781193
7231 362 1 11.306819 -9.711976 7.765253
7232 362 1 12.276819 -9.789983 7.720207
7233 362 1 13.246819 -9.798687 7.777046
7234 362 1 14.216819 -9.751743 7.814729
7235 362 1 15.186819 -9.681681 7.801240
7236 362 1 16.156819 -9.745211 7.839139
7237 362 1 17.126819 -9.798720 7.860108
7238 362 1 18.096819 -9.815169 7.675535
7239 362 1 19.066819 -9.664682 7.859965
7240 362 1 20.036819 -9.814880 7.810412
7241 363 1 -2.968047 2.873520 -7.425220
7242 363 1 -1.998047 2.823565 -7.485113
7243 363 1 -1.028047 2.987306 -7.428954
7244 363 1 -0.058047 2.919571 -7.568046
7245 363 1 0.911953 2.899591 -7.577520
7246 363 1 1.881953 2.972165 -7.420818
7247 363 1 2.851953 2.821794 -7.423259
7248 363 1 3.821953 2.875152 -7.601246
7249 363 1 4.791953 2.978593 -7.421171
7250 363 1 5.761953 2.878227 -7.459609
7251 363 1 6.731953 2.962738 -7.440877
7252 363 1 7.701953 2.999466 -7.509651
7253 363 1 8.671953 2.821196 -7.441516
7254 363 1 9.641953 2.960532 -7.431595
7255 363 1 10.611953 2.826255 -7.414584
7256 363 1 11.581953 2.859085 -7.510851
7257 363 1 12.551953 2.865791 -7.435001
7258 363 1 13.521953 2.933373 -7.575540
7259 363 1 14.491953 2.819533 -7.547023
7260 363 1 15.461953 2.974909 -7.536355
7261 364 1 9.213424 -1.557860 4.832620
7262 364 1 10.183424 -1.677262 4.792064
7263 364 1 11.153424 -1.690237 4.853293
7264 364 1 12.123424 -1.568770 4.925443
7265 364 1 13.093424 -1.578621 4.819151
7266 364 1 14.063424 -1.567200 4.824320
7267 364 1 15.033424 -1.684242 4.923963
7268 364 1 16.003424 -1.553967 4.773743
7269 364 1 16.973424 -1.584231 4.879582
7270 364 1 17.943424 -1.564933 4.924149
7271 364 1 18.913424 -1.661430 4.749359
7272 364 1 19.883424 -1.528944 4.830030
7273 364 1 20.853424 -1.491942 4.803857
7274 364 1 21.823424 -1.539235 4.809866
7275 364 1 22.793424 -1.620587 4.811158
7276 364 1 23.763424 -1.654560 4.860054
7277 364 1 24.733424 -1.669582 4.920399
7278 364 1 25.703424 -1.649934 4.854492
7279 364 1 26.673424 -1.519917 4.921170
7280 364 1 27.643424 -1.623523 4.752057
7281 365 1 6.534422 -3.899766 2.307445
7282 365 1 7.504422 -3.760206 2.236054
7283 365 1 8.474422 -3.801159 2.248585
7284 365 1 9.444422 -3.867293 2.316916
7285 365 1 10.414422 -3.850142 2.238480
7286 365 1 11.384422 -3.751428 2.260975
7287 365 1 12.354422 -3.794211 2.166139
7288 365 1 13.324422 -3.802451 2.261784
7289 365 1 14.294422 -3.792931 2.212745
7290 365 1 15.264422 -3.736856 2.326231
7291 365 1 16.234422 -3.876160 2.345856
7292 365 1 17.204422 -3.731125 2.253348
7293 365 1 18.174422 -3.789366 2.231731
7294 365 1 19.144422 -3.788986 2.208258
7295 365 1 20.114422 -3.834870 2.312325
7296 365 1 21.084422 -3.762302 2.302195
7297 365 1 22.054422 -3.743530 2.253097
7298 365 1 23.024422 -3.779955 2.308950
7299 365 1 23.994422 -3.878854 2.288069
7300 365 1 24.964422 -3.892349 2.193380
7301 366 1 -8.170891 2.455643 4.312300
7302 366 1 -7.200891 2.383597 4.269150
7303 366 1 -6.230891 2.394441 4.234755
7304 366 1 -5.260891 2.473246 4.193714
7305 366 1 -4.290891 2.397663 4.285002
7306 366 1 -3.320891 2.417869 4.326960
7307 366 1 -2.350891 2.433558 4.218085
7308 366 1 -1.380891 2.465976 4.247432
7309 366 1 -0.410891 2.392761 4.359894
7310 366 1 0.559109 2.293494 4.302714
7311 366 1 1.529109 2.470250 4.296932
7312 366 1 2.499109 2.295180 4.344442
7313 366 1 3.469109 2.450193 4.198999
7314 366 1 4.439109 2.416297 4.381632
7315 366 1 5.409109 2.447968 4.299438
7316 366 1 6.379109 2.406004 4.320519
7317 366 1 7.349109 2.336256 4.381231
7318 366 1 8.319109 2.382779 4.247130
7319 366 1 9.289109 2.446958 4.245973
7320 366 1 10.259109 2.311219 4.208902
7321 367 1 -7.573897 2.058281 -6.070407
7322 367 1 -6.603897 2.128755 -6.027971
7323 367 1 -5.633897 2.009317 -6.050466
7324 367 1 -4.663897 2.170037 -6.018908
7325 367 1 -3.693897 2.167165 -6.001785
7326 367 1 -2.723897 2.091787 -6.085036
7327 367 1 -1.753897 2.117661 -6.004041
7328 367 1 -0.783897 2.137563 -6.181679
7329 367 1 0.186103 2.166018 -6.101141
7330 367 1 1.156103 2.091567 -6.047505
7331 367 1 2.126103 2.088245 -6.018541
7332 367 1 3.096103 2.009246 -6.173424
7333 367 1 4.066103 2.177566 -6.043262
7334 367 1 5.036103 2.078297 -6.083230
7335 367 1 6.006103 2.083128 -6.087102
7336 367 1 6.976103 2.019176 -6.040724
7337 367 1 7.946103 1.990803 -6.092929
7338 367 1 8.916103 1.992912 -6.032756
7339 367 1 9.886103 2.124538 -6.048623
7340 367 1 10.856103 2.178810 -6.107279
7341 368 1 7.015922 2.697500 0.291944
7342 368 1 7.985922 2.597844 0.382151
7343 368 1 8.955922 2.505746 0.234653
7344 368 1 9.925922 2.657712 0.290675
7345 368 1 10.895922 2.511137 0.413983
7346 368 1 11.865922 2.636279 0.333820
7347 368 1 12.835922 2.644831 0.329365
7348 368 1 13.805922 2.522074 0.365212
7349 368 1 14.775922 2.660848 0.231620
7350 368 1 15.745922 2.680762 0.400820
7351 368 1 16.715922 2.642840 0.281582
7352 368 1 17.685922 2.629580 0.367536
7353 368 1 18.655922 2.507078 0.242498
7354 368 1 19.625922 2.658347 0.373629
7355 368 1 20.595922 2.659832 0.418333
7356 368 1 21.565922 2.581729 0.389969
7357 368 1 22.535922 2.567514 0.238909
7358 368 1 23.505922 2.579102 0.319033
7359 368 1 24.475922 2.533103 0.402200
7360 368 1 25.445922 2.673490 0.404013
7361 369 1 -0.045977 -2.621443 -6.149346
7362 369 1 0.924023 -2.714041 -6.203987
7363 369 1 1.894023 -2.765446 -6.122577
7364 369 1 2.864023 -2.647737 -6.192617
7365 369 1 3.834023 -2.685238 -6.093818
7366 369 1 4.804023 -2.720333 -6.229662
7367 369 1 5.774023 -2.664327 -6.207480
7368 369 1 6.744023 -2.697362 -6.175605
7369 369 1 7.714023 -2.751962 -6.103068
7370 369 1 8.684023 -2.674261 -6.180718
7371 369 1 9.654023 -2.720043 -6.145771
7372 369 1 10.624023 -2.615919 -6.259991
7373 369 1 11.594023 -2.703927 -6.061842
7374 369 1 12.564023 -2.663835 -6.088085
7375 369 1 13.534023 -2.736711 -6.259812
7376 369 1 14.504023 -2.591411 -6.154862
7377 369 1 15.474023 -2.727938 -6.260461
7378 369 1 16.444023 -2.733859 -6.137777
7379 369 1 17.414023 -2.747373 -6.099429
7380 369 1 18.384023 -2.639859 -6.067173
7381 370 1 0.296621 -8.315474 1.151674
7382 370 1 1.266621 -8.262600 1.129937
7383 370 1 2.236621 -8.457124 1.137545
7384 370 1 3.206621 -8.327959 1.176223
7385 370 1 4.176621 -8.325441 1.192094
7386 370 1 5.146621 -8.404647 1.184883
7387 370 1 6.116621 -8.439777 1.228375
7388 370 1 7.086621 -8.280957 1.247943
7389 370 1 8.056621 -8.449571 1.171153
7390 370 1 9.026621 -8.359792 1.226461
7391 370 1 9.996621 -8.397442 1.086334
7392 370 1 10.966621 -8.431550 1.251203
7393 370 1 11.936621 -8.413028 1.208655
7394 370 1 12.906621 -8.351354 1.194847
7395 370 1 13.876621 -8.375041 1.215315
7396 370 1 14.846621 -8.358700 1.225871
7397 370 1 15.816621 -8.375309 1.101471
7398 370 1 16.786621 -8.264630 1.097531
7399 370 1 17.756621 -8.383033 1.197926
7400 370 1 18.726621 -8.416976 1.232884
7401 371 1 5.924356 2.506054 -6.313741
7402 371 1 6.894356 2.630665 -6.481499
7403 371 1 7.864356 2.558150 -6.337335
7404 371 1 8.834356 2.630477 -6.454543
7405 371 1 9.804356 2.552801 -6.379640
7406 371 1 10.774356 2.443541 -6.406361
7407 371 1 11.744356 2.552933 -6.447673
7408 371 1 12.714356 2.557634 -6.374989
7409 371 1 13.684356 2.510012 -6.390397
7410 371 1 14.654356 2.541243 -6.389640
7411 371 1 15.624356 2.450001 -6.481942
7412 371 1 16.594356 2.495376 -6.466321
7413 371 1 17.564356 2.612020 -6.495986
7414 371 1 18.534356 2.590506 -6.462405
7415 371 1 19.504356 2.482358 -6.412698
7416 371 1 20.474356 2.516694 -6.424681
7417 371 1 21.444356 2.595594 -6.352306
7418 371 1 22.414356 2.490378 -6.470279
7419 371 1 23.384356 2.492169 -6.320441
7420 371 1 24.354356 2.532921 -6.410599
7421 372 1 -1.573905 -8.818325 -6.913913
7422 372 1 -0.603905 -8.743823 -6.953263
7423 372 1 0.366095 -8.735065 -6.915381
7424 372 1 1.336095 -8.814167 -7.053498
7425 372 1 2.306095 -8.659143 -6.924004
7426 372 1 3.276095 -8.679177 -6.893766
7427 372 1 4.246095 -8.816293 -7.039503
7428 372 1 5.216095 -8.780678 -6.985512
7429 372 1 6.186095 -8.791141 -6.950904
7430 372 1 7.156095 -8.705429 -6.916697
7431 372 1 8.126095 -8.678415 -6.910397
7432 372 1 9.096095 -8.783882 -6.993641
7433 372 1 10.066095 -8.768466 -6.961862
7434 372 1 11.036095 -8.756645 -7.043335
7435 372 1 12.006095 -8.811860 -6.916210
7436 372 1 12.976095 -8.699938 -7.009835
7437 372 1 13.946095 -8.690357 -7.039255
7438 372 1 14.916095 -8.669056 -6.994231
7439 372 1 15.886095 -8.783429 -7.000998
7440 372 1 16.856095 -8.831961 -6.984442
7441 373 1 3.838560 0.231701 -5.921039
7442 373 1 4.808560 0.198202 -5.936484
7443 373 1 5.778560 0.192845 -6.037347
7444 373 1 6.748560 0.232612 -5.958223
7445 373 1 7.718560 0.101639 -6.046207
7446 373 1 8.688560 0.207362 -6.008651
7447 373 1 9.658560 0.221582 -6.069452
7448 373 1 10.628560 0.263246 -6.044754
7449 373 1 11.598560 0.195187 -5.983852
7450 373 1 12.568560 0.180501 -6.069805
7451 373 1 13.538560 0.135911 -6.065429
7452 373 1 14.508560 0.195852 -5.886004
7453 373 1 15.478560 0.165217 -5.896386
7454 373 1 16.448560 0.272193 -6.004158
7455 373 1 17.418560 0.202384 -6.068627
7456 373 1 18.388560 0.207488 -5.914792
7457 373 1 19.358560 0.290710 -6.036991
7458 373 1 20.328560 0.181900 -5.914547
7459 373 1 21.298560 0.271276 -6.084266
7460 373 1 22.268560 0.176180 -6.017195
7461 374 1 5.210112 -3.796813 2.754363
7462 374 1 6.180112 -3.875712 2.711412
7463 374 1 7.150112 -3.749567 2.703634
7464 374 1 8.120112 -3.683618 2.671907
7465 374 1 9.090112 -3.747583 2.661866
7466 374 1 10.060112 -3.708275 2.784175
7467 374 1 11.030112 -3.747759 2.732277
7468 374 1 12.000112 -3.713765 2.678389
7469 374 1 12.970112 -3.781891 2.787980
7470 374 1 13.940112 -3.764574 2.728112
7471 374 1 14.910112 -3.806000 2.692255
7472 374 1 15.880112 -3.717800 2.749339
7473 374 1 16.850112 -3.828612 2.850936
7474 374 1 17.820112 -3.878607 2.843694
7475 374 1 18.790112 -3.768360 2.803562
7476 374 1 19.760112 -3.723838 2.741790
7477 374 1 20.730112 -3.869831 2.829573
7478 374 1 21.700112 -3.750596 2.775001
7479 374 1 22.670112 -3.718440 2.771950
7480 374 1 23.640112 -3.811862 2.708784
7481 375 1 -9.152818 -9.544020 5.706258
7482 375 1 -8.182818 -9.501055 5.888973
7483 375 1 -7.212818 -9.536506 5.729878
7484 375 1 -6.242818 -9.536167 5.839162
7485 375 1 -5.272818 -9.501269 5.833434
7486 375 1 -4.302818 -9.620889 5.797137
7487 375 1 -3.332818 -9.596780 5.870409
7488 375 1 -2.362818 -9.687190 5.771034
7489 375 1 -1.392818 -9.619102 5.783681
7490 375 1 -0.422818 -9.622708 5.823105
7491 375 1 0.547182 -9.661600 5.786993
7492 375 1 1.517182 -9.670773 5.759852
7493 375 1 2.487182 -9.584002 5.707571
7494 375 1 3.457182 -9.677177 5.777309
7495 375 1 4.427182 -9.638074 5.765126
7496 375 1 5.397182 -9.568296 5.831136
7497 375 1 6.367182 -9.622299 5.824638
7498 375 1 7.337182 -9.647113 5.715068
7499 375 1 8.307182 -9.693335 5.891476
7500 375 1 9.277182 -9.506902 5.864192
7501 376 1 5.761681 5.675913 -2.124804
7502 376 1 6.731681 5.799765 -2.143044
7503 376 1 7.701681 5.687513 -1.962917
7504 376 1 8.671681 5.810325 -1.961250
7505 376 1 9.641681 5.852234 -1.950183
7506 376 1 10.611681 5.821641 -2.087966
7507 376 1 11.581681 5.671912 -2.058341
7508 376 1 12.551681 5.697672 -2.036240
7509 376 1 13.521681 5.812564 -2.111204
7510 376 1 14.491681 5.687653 -2.113942
7511 376 1 15.461681 5.667101 -2.041786
7512 376 1 16.431681 5.793881 -2.118504
7513 376 1 17.401681 5.675116 -1.985461
7514 376 1 18.371681 5.721080 -2.001482
7515 376 1 19.341681 5.680160 -2.025488
7516 376 1 20.311681 5.796873 -1.951312
7517 376 1 21.281681 5.757073 -2.062611
7518 376 1 22.251681 5.851899 -2.093121
7519 376 1 23.221681 5.839560 -2.142816
7520 376 1 24.191681 5.805907 -2.067826
7521 377 1 2.127890 -5.506664 -1.836517
7522 377 1 3.097890 -5.658882 -1.841827
7523 377 1 4.067890 -5.485727 -1.760055
7524 377 1 5.037890 -5.517003 -1.788379
7525 377 1 6.007890 -5.585691 -1.894340
7526 377 1 6.977890 -5.506915 -1.859126
7527 377 1 7.947890 -5.522125 -1.851126
7528 377 1 8.917890 -5.470943 -1.907092
7529 377 1 9.887890 -5.593922 -1.844143
7530 377 1 10.857890 -5.554386 -1.928687
7531 377 1 11.827890 -5.591853 -1.824349
7532 377 1 12.797890 -5.610998 -1.791560
7533 377 1 13.767890 -5.591133 -1.879750
7534 377 1 14.737890 -5.608912 -1.894134
7535 377 1 15.707890 -5.504320 -1.750695
7536 377 1 16.677890 -5.636162 -1.870859
7537 377 1 17.647890 -5.584309 -1.869404
7538 377 1 18.617890 -5.639237 -1.890665
7539 377 1 19.587890 -5.642132 -1.910123
7540 377 1 20.557890 -5.552587 -1.862800
7541 378 1 2.139563 -1.169025 -1.426124
7542 378 1 3.109563 -0.991529 -1.391917
7543 378 1 4.079563 -0.997586 -1.269328
7544 378 1 5.049563 -1.011611 -1.280093
7545 378 1 6.019563 -1.017184 -1.442078
7546 378 1 6.989563 -1.163344 -1.432587
7547 378 1 7.959563 -1.102826 -1.293268
7548 378 1 8.929563 -1.013389 -1.385493
7549 378 1 9.899563 -1.119480 -1.466508
7550 378 1 10.869563 -1.118494 -1.344614
7551 378 1 11.839563 -1.028444 -1.355519
7552 378 1 12.809563 -0.983971 -1.434461
7553 378 1 13.779563 -1.166783 -1.381596
7554 378 1 14.749563 -1.000587 -1.360630
7555 378 1 15.719563 -1.051413 -1.289967
7556 378 1 16.689563 -1.017268 -1.277229
7557 378 1 17.659563 -1.103417 -1.438885
7558 378 1 18.629563 -1.157599 -1.322322
7559 378 1 19.599563 -1.044015 -1.283216
7560 378 1 20.569563 -1.124427 -1.442729
7561 379 1 -6.966960 -2.832999 -9.237476
7562 379 1 -5.996960 -2.855939 -9.071308
7563 379 1 -5.026960 -2.836530 -9.206097
7564 379 1 -4.056960 -2.990374 -9.212465
7565 379 1 -3.086960 -2.873166 -9.110819
7566 379 1 -2.116960 -2.853991 -9.219390
7567 379 1 -1.146960 -2.897159 -9.247322
7568 379 1 -0.176960 -2.982216 -9.159446
7569 379 1 0.793040 -2.914964 -9.183299
7570 379 1 1.763040 -2.845817 -9.160796
7571 379 1 2.733040 -2.946025 -9.226637
7572 379 1 3.703040 -2.828015 -9.156526
7573 379 1 4.673040 -2.901017 -9.210480
7574 379 1 5.643040 -2.812159 -9.133693
7575 379 1 6.613040 -2.989327 -9.085667
7576 379 1 7.583040 -2.956545 -9.139643
7577 379 1 8.553040 -3.006325 -9.172229
7578 379 1 9.523040 -2.936252 -9.250147
7579 379 1 10.493040 -2.971152 -9.160159
7580 379 1 11.463040 -2.846650 -9.264150
7581 380 1 -3.766126 -4.252756 -9.719661
7582 380 1 -2.796126 -4.305170 -9.643874
7583 380 1 -1.826126 -4.296465 -9.642607
7584 380 1 -0.856126 -4.202993 -9.720815
7585 380 1 0.113874 -4.226818 -9.765167
7586 380 1 1.083874 -4.319355 -9.706671
7587 380 1 2.053874 -4.315471 -9.749563
7588 380 1 3.023874 -4.240730 -9.699961
7589 380 1 3.993874 -4.201033 -9.733389
7590 380 1 4.963874 -4.357171 -9.658438
7591 380 1 5.933874 -4.301710 -9.773261
7592 380 1 6.903874 -4.298560 -9.794934
7593 380 1 7.873874 -4.361317 -9.725805
7594 380 1 8.843874 -4.349145 -9.751027
7595 380 1 9.813874 -4.182679 -9.746657
7596 380 1 10.783874 -4.348250 -9.620004
7597 380 1 11.753874 -4.283618 -9.675391
7598 380 1 12.723874 -4.272196 -9.626032
7599 380 1 13.693874 -4.370043 -9.612791
7600 380 1 14.663874 -4.343722 -9.663780
7601 381 1 -0.616382 1.144606 -3.807028
7602 381 1 0.353618 1.303262 -3.862083
7603 381 1 1.323618 1.229697 -3.871735
7604 381 1 2.293618 1.135603 -3.785469
7605 381 1 3.263618 1.264105 -3.743492
7606 381 1 4.233618 1.204903 -3.781801
7607 381 1 5.203618 1.148044 -3.764046
7608 381 1 6.173618 1.223442 -3.901225
7609 381 1 7.143618 1.181886 -3.824768
7610 381 1 8.113618 1.181195 -3.920133
7611 381 1 9.083618 1.214888 -3.868500
7612 381 1 10.053618 1.294762 -3.911684
7613 381 1 11.023618 1.152896 -3.739091
7614 381 1 11.993618 1.125935 -3.864470
7615 381 1 12.963618 1.171961 -3.918073
7616 381 1 13.933618 1.201878 -3.781093
7617 381 1 14.903618 1.275652 -3.817243
7618 381 1 15.873618 1.169231 -3.918065
7619 381 1 16.843618 1.171251 -3.856587
7620 381 1 17.813618 1.211078 -3.790164
7621 382 1 8.358150 1.588557 -6.726470
7622 382 1 9.328150 1.659050 -6.725721
7623 382 1 10.298150 1.627790 -6.786391
7624 382 1 11.268150 1.538591 -6.815106
7625 382 1 12.238150 1.569249 -6.842034
7626 382 1 13.208150 1.579136 -6.657321
7627 382 1 14.178150 1.675245 -6.657792
7628 382 1 15.148150 1.578517 -6.675610
7629 382 1 16.118150 1.617606 -6.836471
7630 382 1 17.088150 1.543511 -6.694187
7631 382 1 18.058150 1.617024 -6.670124
7632 382 1 19.028150 1.698498 -6.777647
7633 382 1 19.998150 1.671746 -6.780147
7634 382 1 20.968150 1.535072 -6.801628
7635 382 1 21.938150 1.570861 -6.674475
7636 382 1 22.908150 1.683160 -6.772670
7637 382 1 23.878150 1.541893 -6.816380
7638 382 1 24.848150 1.633793 -6.756318
7639 382 1 25.818150 1.547825 -6.825022
7640 382 1 26.788150 1.685560 -6.708966
7641 383 1 -2.307372 9.594283 -2.617922
7642 383 1 -1.337372 9.449657 -2.551841
7643 383 1 -0.367372 9.452269 -2.528166
7644 383 1 0.602628 9.608670 -2.461524
7645 383 1 1.572628 9.512183 -2.593581
7646 383 1 2.542628 9.462502 -2.571409
7647 383 1 3.512628 9.613437 -2.530097
7648 383 1 4.482628 9.479579 -2.569351
7649 383 1 5.452628 9.585820 -2.528250
7650 383 1 6.422628 9.578693 -2.581425
7651 383 1 7.392628 9.547282 -2.524375
7652 383 1 8.362628 9.575255 -2.649973
7653 383 1 9.332628 9.521008 -2.492142
7654 383 1 10.302628 9.481045 -2.537597
7655 383 1 11.272628 9.472512 -2.556957
7656 383 1 12.242628 9.460526 -2.645425
7657 383 1 13.212628 9.536427 -2.494773
7658 383 1 14.182628 9.492097 -2.574199
7659 383 1 15.152628 9.572068 -2.575624
7660 383 1 16.122628 9.504192 -2.592040
7661 384 1 -8.906920 -0.210283 -7.857164
7662 384 1 -7.936920 -0.177969 -7.852441
7663 384 1 -6.966920 -0.284695 -7.768749
7664 384 1 -5.996920 -0.140961 -7.844131
7665 384 1 -5.026920 -0.258163 -7.786406
7666 384 1 -4.056920 -0.224067 -7.791740
7667 384 1 -3.086920 -0.184272 -7.888824
7668 384 1 -2.116920 -0.097708 -7.869489
7669 384 1 -1.146920 -0.158682 -7.802233
7670 384 1 -0.176920 -0.276470 -7.767331
7671 384 1 0.793080 -0.245430 -7.830632
7672 384 1 1.763080 -0.214095 -7.834095
7673 384 1 2.733080 -0.238103 -7.796379
7674 384 1 3.703080 -0.147429 -7.761579
7675 384 1 4.673080 -0.109483 -7.767747
7676 384 1 5.643080 -0.224425 -7.930575
7677 384 1 6.613080 -0.182473 -7.854065
7678 384 1 7.583080 -0.280653 -7.762917
7679 384 1 8.553080 -0.159439 -7.843496
7680 384 1 9.523080 -0.289576 -7.851048
7681 385 1 1.621666 4.063578 -1.472596
7682 385 1 2.591666 3.968796 -1.581271
7683 385 1 3.561666 3.970104 -1.484305
7684 385 1 4.531666 4.114704 -1.516750
7685 385 1 5.501666 3.946667 -1.451105
7686 385 1 6.471666 4.018795 -1.567151
7687 385 1 7.441666 4.034925 -1.552479
7688 385 1 8.411666 4.131266 -1.584645
7689 385 1 9.381666 3.947865 -1.585230
7690 385 1 10.351666 4.047040 -1.437741
7691 385 1 11.321666 4.079097 -1.512517
7692 385 1 12.291666 4.103136 -1.437602
7693 385 1 13.261666 3.978097 -1.459169
7694 385 1 14.231666 4.031268 -1.465377
7695 385 1 15.201666 4.063115 -1.548556
7696 385 1 16.171666 3.995197 -1.616410
7697 385 1 17.141666 4.142226 -1.477682
7698 385 1 18.111666 3.993500 -1.483247
7699 385 1 19.081666 3.954837 -1.558818
7700 385 1 20.051666 3.957074 -1.528169
7701 386 1 9.414777 -3.378314 7.235205
7702 386 1 10.384777 -3.518295 7.137602
7703 386 1 11.354777 -3.382514 7.198851
7704 386 1 12.324777 -3.362994 7.218403
7705 386 1 13.294777 -3.417661 7.143540
7706 386 1 14.264777 -3.507753 7.117868
7707 386 1 15.234777 -3.385341 7.038748
7708 386 1 16.204777 -3.361209 7.116739
7709 386 1 17.174777 -3.507928 7.165896
7710 386 1 18.144777 -3.489676 7.072000
7711 386 1 19.114777 -3.350555 7.049507
7712 386 1 20.084777 -3.429423 7.085840
7713 386 1 21.054777 -3.523901 7.106772
7714 386 1 22.024777 -3.416223 7.203654
7715 386 1 22.994777 -3.343237 7.152868
7716 386 1 23.964777 -3.524954 7.101269
7717 386 1 24.934777 -3.382902 7.180661
7718 386 1 25.904777 -3.491945 7.090039
7719 386 1 26.874777 -3.452336 7.150363
7720 386 1 27.844777 -3.495480 7.205792
7721 387 1 -6.872225 0.042553 -7.635435
7722 387 1 -5.902225 0.021477 -7.632492
7723 387 1 -4.932225 0.057183 -7.565866
7724 387 1 -3.962225 0.037330 -7.475652
7725 387 1 -2.992225 0.145670 -7.547582
7726 387 1 -2.022225 0.024858 -7.569057
7727 387 1 -1.052225 0.157396 -7.535104
7728 387 1 -0.082225 0.176661 -7.647704
7729 387 1 0.887775 0.043598 -7.572280
7730 387 1 1.857775 0.019745 -7.530688
7731 387 1 2.827775 0.045612 -7.636589
7732 387 1 3.797775 0.173738 -7.601971
7733 387 1 4.767775 0.178211 -7.545767
7734 387 1 5.737775 0.043601 -7.564185
7735 387 1 6.707775 0.186271 -7.641531
7736 387 1 7.677775 0.103750 -7.540018
7737 387 1 8.647775 0.037043 -7.478805
7738 387 1 9.617775 0.062314 -7.669344
7739 387 1 10.587775 0.203549 -7.575392
7740 387 1 11.557775 0.076820 -7.623147
7741 388 1 9.788298 -0.986747 9.683592
7742 388 1 10.758298 -0.951370 9.694453
7743 388 1 11.728298 -1.080070 9.720530
7744 388 1 12.698298 -0.927747 9.716602
7745 388 1 13.668298 -0.889006 9.726779
7746 388 1 14.638298 -0.901166 9.762641
7747 388 1 15.608298 -0.952987 9.709052
7748 388 1 16.578298 -1.066820 9.741537
7749 388 1 17.548298 -0.950377 9.802173
7750 388 1 18.518298 -0.985951 9.715952
7751 388 1 19.488298 -1.072988 9.749092
7752 388 1 20.458298 -0.931482 9.872740
7753 388 1 21.428298 -1.008785 9.725571
7754 388 1 22.398298 -1.078861 9.690327
7755 388 1 23.368298 -0.903953 9.872540
7756 388 1 24.338298 -1.081735 9.771924
7757 388 1 25.308298 -0.899666 9.809165
7758 388 1 26.278298 -1.015874 9.860842
7759 388 1 27.248298 -0.910625 9.696500
7760 388 1 28.218298 -1.023967 9.851537
7761 389 1 5.571097 2.159850 7.988352
7762 389 1 6.541097 2.113174 8.115359
7763 389 1 7.511097 2.135528 7.997664
7764 389 1 8.481097 2.080336 8.136523
7765 389 1 9.451097 2.243428 8.042893
7766 389 1 10.421097 2.232085 8.084711
7767 389 1 11.391097 2.104169 8.027009
7768 389 1 12.361097 2.164634 7.989283
7769 389 1 13.331097 2.254003 7.986950
7770 389 1 14.301097 2.235430 8.042728
7771 389 1 15.271097 2.168577 8.066652
7772 389 1 16.241097 2.083773 8.059360
7773 389 1 17.211097 2.153136 8.000546
7774 389 1 18.181097 2.178502 8.000405
7775 389 1 19.151097 2.148797 8.113879
7776 389 1 20.121097 2.223661 7.950028
7777 389 1 21.091097 2.266548 7.999510
7778 389 1 22.061097 2.140066 8.061658
7779 389 1 23.031097 2.261161 8.118180
7780 389 1 24.001097 2.156462 7.943943
7781 390 1 5.618409 5.641542 -3.983776
7782 390 1 6.588409 5.642806 -4.051811
7783 390 1 7.558409 5.646775 -4.137197
7784 390 1 8.528409 5.716172 -4.106383
7785 390 1 9.498409 5.739790 -4.012565
7786 390 1 10.468409 5.588107 -4.101179
7787 390 1 11.438409 5.620506 -4.073467
7788 390 1 12.408409 5.776436 -4.088467
7789 390 1 13.378409 5.707440 -4.153781
7790 390 1 14.348409 5.626358 -4.155901
7791 390 1 15.318409 5.779890 -4.066431
7792 390 1 16.288409 5.632634 -3.972572
7793 390 1 17.258409 5.666546 -3.998613
7794 390 1 18.228409 5.710625 -4.121444
7795 390 1 19.198409 5.650234 -3.999615
7796 390 1 20.168409 5.663760 -4.066049
7797 390 1 21.138409 5.656450 -3.973640
7798 390 1 22.108409 5.776973 -4.053214
7799 390 1 23.078409 5.677235 -3.970196
7800 390 1 24.048409 5.699858 -4.017634
7801 391 1 9.305422 -6.381936 4.933437
7802 391 1 10.275422 -6.335696 5.082277
7803 391 1 11.245422 -6.327695 4.984995
7804 391 1 12.215422 -6.414377 5.016963
7805 391 1 13.185422 -6.372673 4.961271
7806 391 1 14.155422 -6.296816 5.106770
7807 391 1 15.125422 -6.350309 4.939288
7808 391 1 16.095422 -6.310724 5.086954
7809 391 1 17.065422 -6.373977 5.124628
7810 391 1 18.035422 -6.321113 5.103001
7811 391 1 19.005422 -6.274390 5.079200
7812 391 1 19.975422 -6.355342 4.933367
7813 391 1 20.945422 -6.340519 4.998847
7814 391 1 21.915422 -6.302638 5.104058
7815 391 1 22.885422 -6.352766 5.063418
7816 391 1 23.855422 -6.394143 5.104653
7817 391 1 24.825422 -6.421047 5.034503
7818 391 1 25.795422 -6.280652 5.048216
7819 391 1 26.765422 -6.393603 5.125119
7820 391 1 27.735422 -6.412389 5.036009
7821 392 1 7.617130 -9.436619 -5.405171
7822 392 1 8.587130 -9.545972 -5.299547
7823 392 1 9.557130 -9.542129 -5.450752
7824 392 1 10.527130 -9.383909 -5.431148
7825 392 1 11.497130 -9.513644 -5.414049
7826 392 1 12.467130 -9.398685 -5.319511
7827 392 1 13.437130 -9.508838 -5.319919
7828 392 1 14.407130 -9.491339 -5.450690
7829 392 1 15.377130 -9.503492 -5.455508
7830 392 1 16.347130 -9.368319 -5.342291
7831 392 1 17.317130 -9.363263 -5.354742
7832 392 1 18.287130 -9.429316 -5.439963
7833 392 1 19.257130 -9.384860 -5.440388
7834 392 1 20.227130 -9.513472 -5.404973
7835 392 1 21.197130 -9.360548 -5.341754
7836 392 1 22.167130 -9.492953 -5.435333
7837 392 1 23.137130 -9.502084 -5.349075
7838 392 1 24.107130 -9.495446 -5.293162
7839 392 1 25.077130 -9.433335 -5.332200
7840 392 1 26.047130 -9.438829 -5.272340
7841 393 1 1.059672 -0.124983 -9.453741
7842 393 1 2.029672 -0.180249 -9.571322
7843 393 1 2.999672 -0.223887 -9.447938
7844 393 1 3.969672 -0.059228 -9.548367
7845 393 1 4.939672 -0.107121 -9.613167
7846 393 1 5.909672 -0.156505 -9.437195
7847 393 1 6.879672 -0.240829 -9.589325
7848 393 1 7.849672 -0.192192 -9.514974
7849 393 1 8.819672 -0.117677 -9.499345
7850 393 1 9.789672 -0.101331 -9.609886
7851 393 1 10.759672 -0.079509 -9.599591
7852 393 1 11.729672 -0.134349 -9.551238
7853 393 1 12.699672 -0.179539 -9.491774
7854 393 1 13.669672 -0.164731 -9.443455
7855 393 1 14.639672 -0.087162 -9.507952
7856 393 1 15.609672 -0.164408 -9.518774
7857 393 1 16.579672 -0.171095 -9.438555
7858 393 1 17.549672 -0.064419 -9.516135
7859 393 1 18.519672 -0.243560 -9.499810
7860 393 1 19.489672 -0.175614 -9.488053
7861 394 1 0.300070 2.393030 2.118045
7862 394 1 1.270070 2.275833 2.019040
7863 394 1 2.240070 2.398599 2.024944
7864 394 1 3.210070 2.351279 2.134435
7865 394 1 4.180070 2.237373 1.983370
7866 394 1 5.150070 2.252570 2.130203
7867 394 1 6.120070 2.364883 2.145334
7868 394 1 7.090070 2.383754 2.065080
7869 394 1 8.060070 2.237977 2.065504
7870 394 1 9.030070 2.396636 1.994909
7871 394 1 10.000070 2.311861 2.032503
7872 394 1 10.970070 2.334259 2.002806
7873 394 1 11.940070 2.217868 1.974142
7874 394 1 12.910070 2.330718 2.025181
7875 394 1 13.880070 2.363037 2.096660
7876 394 1 14.850070 2.202267 1.975857
7877 394 1 15.820070 2.384827 2.097810
7878 394 1 16.790070 2.398802 1.966103
7879 394 1 17.760070 2.340064 2.129876
7880 394 1 18.730070 2.233522 2.043871
7881 395 1 8.582881 -2.891476 2.027138
7882 395 1 9.552881 -3.027768 2.066484
7883 395 1 10.522881 -2.896346 1.916412
7884 395 1 11.492881 -2.909824 1.999130
7885 395 1 12.462881 -3.039780 2.097872
7886 395 1 13.432881 -2.874454 1.940704
7887 395 1 14.402881 -2.960395 1.956107
7888 395 1 15.372881 -2.962250 2.062012
7889 395 1 16.342881 -2.924851 1.987232
7890 395 1 17.312881 -2.955979 2.085930
7891 395 1 18.282881 -2.919202 2.057642
7892 395 1 19.252881 -2.938227 1.927337
7893 395 1 20.222881 -2.895532 1.981109
7894 395 1 21.192881 -2.880567 2.043683
7895 395 1 22.162881 -3.057450 2.043320
7896 395 1 23.132881 -3.013562 1.957484
7897 395 1 24.102881 -3.026669 1.951126
7898 395 1 25.072881 -3.006715 1.957147
7899 395 1 26.042881 -2.957084 2.085270
7900 395 1 27.012881 -2.997883 1.925510
7901 396 1 -1.106001 9.809156 -9.210081
7902 396 1 -0.136001 9.910508 -9.192978
7903 396 1 0.833999 9.871972 -9.182481
7904 396 1 1.803999 9.863369 -9.297467
7905 396 1 2.773999 9.916190 -9.114598
7906 396 1 3.743999 9.771925 -9.229950
7907 396 1 4.713999 9.862069 -9.281001
7908 396 1 5.683999 9.936477 -9.190039
7909 396 1 6.653999 9.908152 -9.272545
7910 396 1 7.623999 9.933067 -9.204383
7911 396 1 8.593999 9.926094 -9.124869
7912 396 1 9.563999 9.792032 -9.263417
7913 396 1 10.533999 9.890322 -9.194028
7914 396 1 11.503999 9.782385 -9.288966
7915 396 1 12.473999 9.868073 -9.267020
7916 396 1 13.443999 9.765054 -9.251261
7917 396 1 14.413999 9.748773 -9.137169
7918 396 1 15.383999 9.882950 -9.263694
7919 396 1 16.353999 9.823473 -9.228854
7920 396 1 17.323999 9.858276 -9.293183
7921 397 1 -6.638532 5.120290 -1.647139
7922 397 1 -5.668532 5.212518 -1.639893
7923 397 1 -4.698532 5.142688 -1.663393
7924 397 1 -3.728532 5.238057 -1.700818
7925 397 1 -2.758532 5.214725 -1.767637
7926 397 1 -1.788532 5.117786 -1.680490
7927 397 1 -0.818532 5.107439 -1.665233
7928 397 1 0.151468 5.102159 -1.694393
7929 397 1 1.121468 5.140207 -1.738367
7930 397 1 2.091468 5.233999 -1.811496
7931 397 1 3.061468 5.151869 -1.733329
7932 397 1 4.031468 5.208776 -1.654893
7933 397 1 5.001468 5.053094 -1.820177
7934 397 1 5.971468 5.114366 -1.720698
7935 397 1 6.941468 5.226237 -1.719481
7936 397 1 7.911468 5.198186 -1.817166
7937 397 1 8.881468 5.116956 -1.755502
7938 397 1 9.851468 5.064718 -1.671135
7939 397 1 10.821468 5.175409 -1.721427
7940 397 1 11.791468 5.206605 -1.690498
7941 398 1 -7.809769 -0.508188 -2.361272
7942 398 1 -6.839769 -0.476612 -2.330758
7943 398 1 -5.869769 -0.533827 -2.290125
7944 398 1 -4.899769 -0.448465 -2.307482
7945 398 1 -3.929769 -0.483201 -2.393478
7946 398 1 -2.959769 -0.400925 -2.348065
7947 398 1 -1.989769 -0.414767 -2.357039
7948 398 1 -1.019769 -0.481132 -2.383541
7949 398 1 -0.049769 -0.421302 -2.251156
7950 398 1 0.920231 -0.483858 -2.352030
7951 398 1 1.890231 -0.388624 -2.287441
7952 398 1 2.860231 -0.378844 -2.265657
7953 398 1 3.830231 -0.481055 -2.404357
7954 398 1 4.800231 -0.551872 -2.256919
7955 398 1 5.770231 -0.519469 -2.274571
7956 398 1 6.740231 -0.528858 -2.268761
7957 398 1 7.710231 -0.540580 -2.349021
7958 398 1 8.680231 -0.407909 -2.262815
7959 398 1 9.650231 -0.553437 -2.390461
7960 398 1 10.620231 -0.536128 -2.381472
7961 399 1 2.419758 0.978805 -9.890097
7962 399 1 3.389758 1.085730 -9.731693
7963 399 1 4.359758 0.997647 -9.753627
7964 399 1 5.329758 1.029723 -9.805826
7965 399 1 6.299758 1.120552 -9.758948
7966 399 1 7.269758 1.111315 -9.714858
7967 399 1 8.239758 1.050643 -9.840508
7968 399 1 9.209758 1.113814 -9.717126
7969 399 1 10.179758 1.130123 -9.730461
7970 399 1 11.149758 1.155849 -9.824471
7971 399 1 12.119758 1.083620 -9.819287
7972 399 1 13.089758 1.108629 -9.890281
7973 399 1 14.059758 1.035119 -9.737120
7974 399 1 15.029758 1.047647 -9.725599
7975 399 1 15.999758 1.160109 -9.740086
7976 399 1 16.969758 1.104114 -9.778919
7977 399 1 17.939758 1.057459 -9.859711
7978 399 1 18.909758 1.153653 -9.752740
7979 399 1 19.879758 0.979144 -9.878594
7980 399 1 20.849758 1.163500 -9.891483
7981 400 1 -6.215525 -3.664452 9.155818
7982 400 1 -5.245525 -3.692800 9.054224
7983 400 1 -4.275525 -3.779870 9.009629
7984 400 1 -3.305525 -3.822288 9.126202
7985 400 1 -2.335525 -3.758068 9.120870
7986 400 1 -1.365525 -3.791004 9.107919
7987 400 1 -0.395525 -3.768034 9.039412
7988 400 1 0.574475 -3.670288 9.051670
7989 400 1 1.544475 -3.673021 9.071781
7990 400 1 2.514475 -3.663295 9.096028
7991 400 1 3.484475 -3.686734 9.032367
7992 400 1 4.454475 -3.795998 9.058026
7993 400 1 5.424475 -3.630889 8.992152
7994 400 1 6.394475 -3.739445 9.151996
7995 400 1 7.364475 -3.703265 9.018541
7996 400 1 8.334475 -3.692492 9.079869
7997 400 1 9.304475 -3.808222 9.157376
7998 400 1 10.274475 -3.687304 9.134882
7999 400 1 11.244475 -3.706558 9.036704
8000 400 1 12.214475 -3.800708 9.058140
8001 401 1 1.853381 -3.307539 6.961578
8002 401 1 2.823381 -3.242713 6.872840
8003 401 1 3.793381 -3.194592 7.013157
8004 401 1 4.763381 -3.215604 6.922659
8005 401 1 5.733381 -3.242046 6.916912
8006 401 1 6.703381 -3.235372 6.877809
8007 401 1 7.673381 -3.177999 6.862979
8008 401 1 8.643381 -3.191905 7.016611
8009 401 1 9.613381 -3.189775 6.961127
8010 401 1 10.583381 -3.247393 7.025172
8011 401 1 11.553381 -3.180857 7.009596
8012 401 1 12.523381 -3.174275 6.854851
8013 401 1 13.493381 -3.285906 7.018225
8014 401 1 14.463381 -3.312362 6.892961
8015 401 1 15.433381 -3.263823 6.957836
8016 401 1 16.403381 -3.303176 6.960899
8017 401 1 17.373381 -3.229859 6.892839
8018 401 1 18.343381 -3.267807 6.984355
8019 401 1 19.313381 -3.195430 7.010597
8020 401 1 20.283381 -3.337804 6.947925
8021 402 1 3.905221 -6.421172 0.601889
8022 402 1 4.875221 -6.505468 0.571559
8023 402 1 5.845221 -6.466249 0.433945
8024 402 1 6.815221 -6.342938 0.525925
8025 402 1 7.785221 -6.463287 0.604155
8026 402 1 8.755221 -6.437480 0.433162
8027 402 1 9.725221 -6.387844 0.444295
8028 402 1 10.695221 -6.475971 0.532945
8029 402 1 11.665221 -6.485208 0.463532
8030 402 1 12.635221 -6.468934 0.523780
8031 402 1 13.605221 -6.384207 0.442674
8032 402 1 14.575221 -6.371344 0.610811
8033 402 1 15.545221 -6.492926 0.567346
8034 402 1 16.515221 -6.317708 0.463313
8035 402 1 17.485221 -6.445010 0.500599
8036 402 1 18.455221 -6.454740 0.558369
8037 402 1 19.425221 -6.379881 0.603628
8038 402 1 20.395221 -6.371564 0.499007
8039 402 1 21.365221 -6.468719 0.423065
8040 402 1 22.335221 -6.360364 0.615724
8041 403 1 8.261810 1.915294 -1.930669
8042 403 1 9.231810 1.851417 -1.836331
8043 403 1 10.201810 1.832731 -1.886037
8044 403 1 11.171810 1.922041 -1.884382
8045 403 1 12.141810 1.981354 -1.821081
8046 403 1 13.111810 1.934951 -1.966859
8047 403 1 14.081810 1.896910 -1.803456
8048 403 1 15.051810 1.978509 -1.852018
8049 403 1 16.021810 1.969605 -1.983101
8050 403 1 16.991810 1.897385 -1.893709
8051 403 1 17.961810 1.872616 -1.811217
8052 403 1 18.931810 1.805191 -1.922674
8053 403 1 19.901810 1.836201 -1.902412
8054 403 1 20.871810 1.952244 -1.823647
8055 403 1 21.841810 1.914771 -1.927584
8056 403 1 22.811810 1.905834 -1.880205
8057 403 1 23.781810 1.991635 -1.969728
8058 403 1 24.751810 1.945430 -1.905182
8059 403 1 25.721810 1.844355 -1.855438
8060 403 1 26.691810 1.915691 -1.816946
8061 404 1 -9.533559 2.098294 -2.200929
8062 404 1 -8.563559 2.061162 -2.095079
8063 404 1 -7.593559 1.967537 -2.175189
8064 404 1 -6.623559 2.117773 -2.035600
8065 404 1 -5.653559 2.095925 -2.190461
8066 404 1 -4.683559 2.084149 -2.170788
8067 404 1 -3.713559 2.128605 -2.178438
8068 404 1 -2.743559 2.007231 -2.040844
8069 404 1 -1.773559 1.964529 -2.085421
8070 404 1 -0.803559 2.039474 -2.059593
8071 404 1 0.166441 1.965732 -2.214531
8072 404 1 1.136441 1.965695 -2.048817
8073 404 1 2.106441 2.141665 -2.088070
8074 404 1 3.076441 1.975040 -2.076242
8075 404 1 4.046441 1.982086 -2.217789
8076 404 1 5.016441 1.945420 -2.123122
8077 404 1 5.986441 1.950451 -2.039357
8078 404 1 6.956441 2.002357 -2.065001
8079 404 1 7.926441 2.027661 -2.092036
8080 404 1 8.896441 2.123228 -2.067119
8081 405 1 2.358358 7.464036 -6.560554
8082 405 1 3.328358 7.443246 -6.484683
8083 405 1 4.298358 7.541399 -6.621575
8084 405 1 5.268358 7.465677 -6.501615
8085 405 1 6.238358 7.518400 -6.599854
8086 405 1 7.208358 7.437096 -6.628076
8087 405 1 8.178358 7.444649 -6.600281
8088 405 1 9.148358 7.471645 -6.552365
8089 405 1 10.118358 7.377351 -6.631591
8090 405 1 11.088358 7.484422 -6.616660
8091 405 1 12.058358 7.464335 -6.592398
8092 405 1 13.028358 7.368016 -6.455087
8093 405 1 13.998358 7.388776 -6.447137
8094 405 1 14.968358 7.513854 -6.517939
8095 405 1 15.938358 7.346335 -6.498134
8096 405 1 16.908358 7.350311 -6.508061
8097 405 1 17.878358 7.393284 -6.480493
8098 405 1 18.848358 7.407193 -6.589044
8099 405 1 19.818358 7.350291 -6.607967
8100 405 1 20.788358 7.392981 -6.498992
8101 406 1 -8.254438 -7.995681 0.907924
8102 406 1 -7.284438 -7.925367 0.990710
8103 406 1 -6.314438 -8.001638 0.975730
8104 406 1 -5.344438 -7.927138 0.994627
8105 406 1 -4.374438 -7.857282 0.871596
8106 406 1 -3.404438 -7.982479 1.004027
8107 406 1 -2.434438 -7.912516 1.029490
8108 406 1 -1.464438 -8.025174 1.001330
8109 406 1 -0.494438 -7.957678 1.026217
8110 406 1 0.475562 -7.880820 1.024153
8111 406 1 1.445562 -7.912793 1.011490
8112 406 1 2.415562 -8.020617 0.913309
8113 406 1 3.385562 -7.999942 0.870079
8114 406 1 4.355562 -7.899523 0.967907
8115 406 1 5.325562 -7.965214 0.955468
8116 406 1 6.295562 -7.863274 0.925186
8117 406 1 7.265562 -7.863565 1.018401
8118 406 1 8.235562 -7.909699 0.987059
8119 406 1 9.205562 -8.023717 0.898801
8120 406 1 10.175562 -7.853580 0.922992
8121 407 1 4.413477 -7.058963 6.061243
8122 407 1 5.383477 -7.073811 6.028585
8123 407 1 6.353477 -7.035054 6.126936
8124 407 1 7.323477 -6.994159 6.162519
8125 407 1 8.293477 -6.985252 6.171186
8126 407 1 9.263477 -7.041026 6.059202
8127 407 1 10.233477 -7.034523 6.065800
8128 407 1 11.203477 -7.133364 5.994826
8129 407 1 12.173477 -6.976207 6.125144
8130 407 1 13.143477 -7.143390 6.074549
8131 407 1 14.113477 -7.160129 6.165867
8132 407 1 15.083477 -7.156051 5.991530
8133 407 1 16.053477 -7.142876 6.147283
8134 407 1 17.023477 -7.047738 6.148783
8135 407 1 17.993477 -7.050745 5.996336
8136 407 1 18.963477 -7.038477 6.175544
8137 407 1 19.933477 -7.026694 6.117365
8138 407 1 20.903477 -7.021640 6.062647
8139 407 1 21.873477 -7.118957 6.094787
8140 407 1 22.843477 -7.159414 6.149435
8141 408 1 -2.355672 -2.178060 5.057319
8142 408 1 -1.385672 -2.309560 5.078622
8143 408 1 -0.415672 -2.270978 5.095654
8144 408 1 0.554328 -2.305326 5.098527
8145 408 1 1.524328 -2.270777 5.156260
8146 408 1 2.494328 -2.154984 5.224619
8147 408 1 3.464328 -2.178781 5.061189
8148 408 1 4.434328 -2.282836 5.031897
8149 408 1 5.404328 -2.231855 5.085591
8150 408 1 6.374328 -2.162241 5.031070
8151 408 1 7.344328 -2.315811 5.072436
8152 408 1 8.314328 -2.271986 5.135255
8153 408 1 9.284328 -2.260505 5.109931
8154 408 1 10.254328 -2.224174 5.132069
8155 408 1 11.224328 -2.189528 5.055322
8156 408 1 12.194328 -2.181283 5.098899
8157 408 1 13.164328 -2.343399 5.164040
8158 408 1 14.134328 -2.266275 5.043176
8159 408 1 15.104328 -2.215446 5.191257
8160 408 1 16.074328 -2.175167 5.143167
8161 409 1 -0.966647 -4.151770 -4.274497
8162 409 1 0.003353 -4.299972 -4.123631
8163 409 1 0.973353 -4.209872 -4.128020
8164 409 1 1.943353 -4.173921 -4.249755
8165 409 1 2.913353 -4.104862 -4.138320
8166 409 1 3.883353 -4.134730 -4.170243
8167 409 1 4.853353 -4.167173 -4.174516
8168 409 1 5.823353 -4.151491 -4.215136
8169 409 1 6.793353 -4.123161 -4.284709
8170 409 1 7.763353 -4.215745 -4.179828
8171 409 1 8.733353 -4.184557 -4.146130
8172 409 1 9.703353 -4.210105 -4.135146
8173 409 1 10.673353 -4.253847 -4.226979
8174 409 1 11.643353 -4.259212 -4.196536
8175 409 1 12.613353 -4.213635 -4.183839
8176 409 1 13.583353 -4.155243 -4.127229
8177 409 1 14.553353 -4.216837 -4.277879
8178 409 1 15.523353 -4.287039 -4.143560
8179 409 1 16.493353 -4.184755 -4.149734
8180 409 1 17.463353 -4.146997 -4.170182
8181 410 1 1.993326 7.543204 -1.788236
8182 410 1 2.963326 7.344414 -1.792292
8183 410 1 3.933326 7.468169 -1.969069
8184 410 1 4.903326 7.501922 -1.826606
8185 410 1 5.873326 7.534030 -1.968772
8186 410 1 6.843326 7.432774 -1.801916
8187 410 1 7.813326 7.397490 -1.921160
8188 410 1 8.783326 7.365805 -1.866713
8189 410 1 9.753326 7.536044 -1.833094
8190 410 1 10.723326 7.352211 -1.941114
8191 410 1 11.693326 7.419902 -1.843798
8192 410 1 12.663326 7.429007 -1.911649
8193 410 1 13.633326 7.471028 -1.808548
8194 410 1 14.603326 7.440140 -1.828873
8195 410 1 15.573326 7.447377 -1.930255
8196 410 1 16.543326 7.348286 -1.953174
8197 410 1 17.513326 7.403326 -1.781641
8198 410 1 18.483326 7.529627 -1.890813
8199 410 1 19.453326 7.356150 -1.793172
8200 410 1 20.423326 7.355941 -1.869361
8201 411 1 -7.240444 -5.096592 1.023258
8202 411 1 -6.270444 -5.173599 1.071982
8203 411 1 -5.300444 -5.132776 1.028841
8204 411 1 -4.330444 -5.052143 1.176159
8205 411 1 -3.360444 -5.069813 1.150024
8206 411 1 -2.390444 -5.116156 1.139889
8207 411 1 -1.420444 -5.161636 1.183070
8208 411 1 -0.450444 -5.065797 1.104205
8209 411 1 0.519556 -5.149130 1.042396
8210 411 1 1.489556 -5.024740 1.101717
8211 411 1 2.459556 -5.093240 1.166222
8212 411 1 3.429556 -5.083325 1.068950
8213 411 1 4.399556 -5.056826 1.181868
8214 411 1 5.369556 -5.062938 1.022983
8215 411 1 6.339556 -5.039956 0.984910
8216 411 1 7.309556 -5.092505 1.098929
8217 411 1 8.279556 -5.114218 1.040924
8218 411 1 9.249556 -5.006926 1.162427
8219 411 1 10.219556 -4.989704 1.069841
8220 411 1 11.189556 -5.077300 1.114833
8221 412 1 2.570391 5.745333 -8.088491
8222 412 1 3.540391 5.694539 -8.239992
8223 412 1 4.510391 5.723425 -8.237349
8224 412 1 5.480391 5.840705 -8.093392
8225 412 1 6.450391 5.809790 -8.250958
8226 412 1 7.420391 5.769054 -8.178607
8227 412 1 8.390391 5.798028 -8.142857
8228 412 1 9.360391 5.745643 -8.237495
8229 412 1 10.330391 5.722349 -8.261164
8230 412 1 11.300391 5.836141 -8.255142
8231 412 1 12.270391 5.732714 -8.117182
8232 412 1 13.240391 5.676548 -8.205362
8233 412 1 14.210391 5.700655 -8.260405
8234 412 1 15.180391 5.741100 -8.210822
8235 412 1 16.150391 5.775714 -8.247993
8236 412 1 17.120391 5.781999 -8.086956
8237 412 1 18.090391 5.761599 -8.231186
8238 412 1 19.060391 5.810553 -8.243024
8239 412 1 20.030391 5.814448 -8.199925
8240 412 1 21.000391 5.815736 -8.275444
8241 413 1 0.950371 -4.240295 -9.457039
8242 413 1 1.920371 -4.243131 -9.456641
8243 413 1 2.890371 -4.411511 -9.517098
8244 413 1 3.860371 -4.324686 -9.435894
8245 413 1 4.830371 -4.310210 -9.390417
8246 413 1 5.800371 -4.259581 -9.532619
8247 413 1 6.770371 -4.241317 -9.362558
8248 413 1 7.740371 -4.358743 -9.356574
8249 413 1 8.710371 -4.390414 -9.373250
8250 413 1 9.680371 -4.291388 -9.473773
8251 413 1 10.650371 -4.269215 -9.498225
8252 413 1 11.620371 -4.243325 -9.483347
8253 413 1 12.590371 -4.259277 -9.547061
8254 413 1 13.560371 -4.322541 -9.486651
8255 413 1 14.530371 -4.365870 -9.436160
8256 413 1 15.500371 -4.266212 -9.397954
8257 413 1 16.470371 -4.425178 -9.355656
8258 413 1 17.440371 -4.389059 -9.548206
8259 413 1 18.410371 -4.253603 -9.546790
8260 413 1 19.380371 -4.422712 -9.377488
8261 414 1 6.877181 3.898546 5.960182
8262 414 1 7.847181 4.071766 5.836321
8263 414 1 8.817181 4.085492 5.911264
8264 414 1 9.787181 4.084966 5.858771
8265 414 1 10.757181 4.020005 5.913392
8266 414 1 11.727181 4.008749 5.864970
8267 414 1 12.697181 3.968284 5.937770
8268 414 1 13.667181 3.965287 5.783754
8269 414 1 14.637181 4.023832 5.947631
8270 414 1 15.607181 4.008623 5.887204
8271 414 1 16.577181 4.035397 5.867229
8272 414 1 17.547181 4.056719 5.896085
8273 414 1 18.517181 3.959311 5.787058
8274 414 1 19.487181 4.015580 5.862419
8275 414 1 20.457181 4.022624 5.958952
8276 414 1 21.427181 3.924807 5.962494
8277 414 1 22.397181 3.916192 5.865135
8278 414 1 23.367181 4.063272 5.801278
8279 414 1 24.337181 3.897568 5.875709
8280 414 1 25.307181 4.011971 5.967150
8281 415 1 -7.391751 4.007189 8.534091
8282 415 1 -6.421751 3.916184 8.598712
8283 415 1 -5.451751 4.045915 8.555841
8284 415 1 -4.481751 4.034631 8.636472
8285 415 1 -3.511751 4.079604 8.543502
8286 415 1 -2.541751 4.017015 8.669519
8287 415 1 -1.571751 3.945907 8.661715
8288 415 1 -0.601751 4.003940 8.538375
8289 415 1 0.368249 3.974850 8.659979
8290 415 1 1.338249 4.093184 8.526883
8291 415 1 2.308249 4.080219 8.604913
8292 415 1 3.278249 4.072402 8.680419
8293 415 1 4.248249 3.930424 8.676709
8294 415 1 5.218249 3.916063 8.563795
8295 415 1 6.188249 4.024703 8.590966
8296 415 1 7.158249 3.912662 8.682004
8297 415 1 8.128249 3.976764 8.523691
8298 415 1 9.098249 3.933830 8.689155
8299 415 1 10.068249 3.959175 8.513288
8300 415 1 11.038249 3.984648 8.577118
8301 416 1 1.596141 -9.872605 -9.086257
8302 416 1 2.566141 -9.911643 -9.093052
8303 416 1 3.536141 -9.771049 -9.090990
8304 416 1 4.506141 -9.768530 -9.043916
8305 416 1 5.476141 -9.917597 -9.138127
8306 416 1 6.446141 -9.891614 -9.146889
8307 416 1 7.416141 -9.827246 -9.097128
8308 416 1 8.386141 -9.747837 -9.117261
8309 416 1 9.356141 -9.819968 -9.127069
8310 416 1 10.326141 -9.881644 -9.032443
8311 416 1 11.296141 -9.814496 -9.169301
8312 416 1 12.266141 -9.803555 -9.056782
8313 416 1 13.236141 -9.866099 -9.098835
8314 416 1 14.206141 -9.752671 -9.050539
8315 416 1 15.176141 -9.902568 -9.067490
8316 416 1 16.146141 -9.837057 -9.082083
8317 416 1 17.116141 -9.838500 -9.136361
8318 416 1 18.086141 -9.810897 -9.192261
8319 416 1 19.056141 -9.821332 -9.105569
8320 416 1 20.026141 -9.891907 -9.196653
8321 417 1 0.111810 -0.416472 -5.419215
8322 417 1 1.081810 -0.394995 -5.310223
8323 417 1 2.051810 -0.418081 -5.407830
8324 417 1 3.021810 -0.320922 -5.390606
8325 417 1 3.991810 -0.384884 -5.442497
8326 417 1 4.961810 -0.440104 -5.436656
8327 417 1 5.931810 -0.366043 -5.410439
8328 417 1 6.901810 -0.405344 -5.469563
8329 417 1 7.871810 -0.415784 -5.462911
8330 417 1 8.841810 -0.358879 -5.394120
8331 417 1 9.811810 -0.323360 -5.304856
8332 417 1 10.781810 -0.437294 -5.354870
8333 417 1 11.751810 -0.365466 -5.326923
8334 417 1 12.721810 -0.450301 -5.442364
8335 417 1 13.691810 -0.477848 -5.404404
8336 417 1 14.661810 -0.452125 -5.367533
8337 417 1 15.631810 -0.340921 -5.357957
8338 417 1 16.601810 -0.366862 -5.358263
8339 417 1 17.571810 -0.459746 -5.339593
8340 417 1 18.541810 -0.287963 -5.324677
8341 418 1 -8.749585 2.904288 4.977110
8342 418 1 -7.779585 2.954562 5.120755
8343 418 1 -6.809585 2.966064 5.103874
8344 418 1 -5.839585 3.084653 5.162810
8345 418 1 -4.869585 3.065515 5.034972
8346 418 1 -3.899585 3.068913 5.077061
8347 418 1 -2.929585 2.918109 4.995288
8348 418 1 -1.959585 2.953956 5.160589
8349 418 1 -0.989585 3.071760 5.097070
8350 418 1 -0.019585 3.056599 5.010641
8351 418 1 0.950415 3.056897 5.078191
8352 418 1 1.920415 3.091216 5.019426
8353 418 1 2.890415 2.937515 5.035110
8354 418 1 3.860415 2.981479 5.115374
8355 418 1 4.830415 3.048597 4.971012
8356 418 1 5.800415 3.034924 5.109339
8357 418 1 6.770415 3.078913 5.142282
8358 418 1 7.740415 2.936744 5.132771
8359 418 1 8.710415 2.919076 5.062989
8360 418 1 9.680415 2.978089 5.148918
8361 419 1 7.201803 -0.038730 -2.425018
8362 419 1 8.171803 -0.056137 -2.435570
8363 419 1 9.141803 -0.033974 -2.516220
8364 419 1 10.111803 -0.083336 -2.390760
8365 419 1 11.081803 -0.088474 -2.393665
8366 419 1 12.051803 -0.002291 -2.490608
8367 419 1 13.021803 -0.109127 -2.428338
8368 419 1 13.991803 0.043655 -2.515205
8369 419 1 14.961803 -0.051832 -2.457340
8370 419 1 15.931803 -0.025769 -2.445516
8371 419 1 16.901803 -0.120543 -2.544916
8372 419 1 17.871803 -0.073148 -2.505369
8373 419 1 18.841803 0.019661 -2.425274
8374 419 1 19.811803 0.051983 -2.448453
8375 419 1 20.781803 0.004468 -2.566871
8376 419 1 21.751803 0.067649 -2.488929
8377 419 1 22.721803 -0.069695 -2.408774
8378 419 1 23.691803 -0.037249 -2.568482
8379 419 1 24.661803 -0.002681 -2.411716
8380 419 1 25.631803 0.017738 -2.408245
8381 420 1 -8.539137 0.418190 2.398608
8382 420 1 -7.569137 0.361470 2.414395
8383 420 1 -6.599137 0.462807 2.536425
8384 420 1 -5.629137 0.320962 2.521180
8385 420 1 -4.659137 0.390660 2.517989
8386 420 1 -3.689137 0.349418 2.461964
8387 420 1 -2.719137 0.385496 2.466246
8388 420 1 -1.749137 0.461610 2.472462
8389 420 1 -0.779137 0.325724 2.497343
8390 420 1 0.190863 0.479223 2.378372
8391 420 1 1.160863 0.318184 2.551556
8392 420 1 2.130863 0.437649 2.405743
8393 420 1 3.100863 0.338751 2.553875
8394 420 1 4.070863 0.398276 2.418654
8395 420 1 5.040863 0.331500 2.536652
8396 420 1 6.010863 0.433293 2.459797
8397 420 1 6.980863 0.358687 2.517393
8398 420 1 7.950863 0.434497 2.502929
8399 420 1 8.920863 0.342951 2.472133
8400 420 1 9.890863 0.453808 2.476238
8401 421 1 2.069820 7.484226 3.349494
8402 421 1 3.039820 7.585434 3.287315
8403 421 1 4.009820 7.583124 3.441716
8404 421 1 4.979820 7.562689 3.380314
8405 421 1 5.949820 7.547592 3.268777
8406 421 1 6.919820 7.501350 3.291226
8407 421 1 7.889820 7.523681 3.351839
8408 421 1 8.859820 7.406547 3.398676
8409 421 1 9.829820 7.556988 3.392552
8410 421 1 10.799820 7.591319 3.437415
8411 421 1 11.769820 7.414269 3.332002
8412 421 1 12.739820 7.446143 3.410916
8413 421 1 13.709820 7.402055 3.293401
8414 421 1 14.679820 7.436049 3.417837
8415 421 1 15.649820 7.417770 3.319164
8416 421 1 16.619820 7.559787 3.320453
8417 421 1 17.589820 7.473519 3.315711
8418 421 1 18.559820 7.425402 3.427113
8419 421 1 19.529820 7.543535 3.261990
8420 421 1 20.499820 7.532619 3.367479
8421 422 1 -0.287204 0.891101 -0.437763
8422 422 1 0.682796 0.763434 -0.453788
8423 422 1 1.652796 0.723764 -0.315357
8424 422 1 2.622796 0.813266 -0.331333
8425 422 1 3.592796 0.793714 -0.363873
8426 422 1 4.562796 0.776749 -0.488647
8427 422 1 5.532796 0.782732 -0.374270
8428 422 1 6.502796 0.737832 -0.359324
8429 422 1 7.472796 0.827848 -0.449957
8430 422 1 8.442796 0.744862 -0.404165
8431 422 1 9.412796 0.834150 -0.368248
8432 422 1 10.382796 0.782880 -0.377439
8433 422 1 11.352796 0.759350 -0.395236
8434 422 1 12.322796 0.901451 -0.407052
8435 422 1 13.292796 0.893477 -0.449337
8436 422 1 14.262796 0.829564 -0.351614
8437 422 1 15.232796 0.900932 -0.430672
8438 422 1 16.202796 0.871659 -0.351045
8439 422 1 17.172796 0.850187 -0.381982
8440 422 1 18.142796 0.702681 -0.409090
8441 423 1 5.341477 0.890327 5.156388
8442 423 1 6.311477 1.008416 5.141442
8443 423 1 7.281477 0.907486 4.995020
8444 423 1 8.251477 0.849296 5.063623
8445 423 1 9.221477 1.027333 4.988571
8446 423 1 10.191477 0.863361 5.149283
8447 423 1 11.161477 0.842964 4.992394
8448 423 1 12.131477 0.972404 5.040283
8449 423 1 13.101477 1.008016 5.014589
8450 423 1 14.071477 0.999304 5.142109
8451 423 1 15.041477 0.965868 5.099754
8452 423 1 16.011477 0.995546 5.043100
8453 423 1 16.981477 1.011147 5.052177
8454 423 1 17.951477 0.958041 4.990463
8455 423 1 18.921477 1.026723 5.107928
8456 423 1 19.891477 0.915009 5.172072
8457 423 1 20.861477 1.009030 5.092811
8458 423 1 21.831477 0.926575 5.038168
8459 423 1 22.801477 0.844715 5.026768
8460 423 1 23.771477 1.039563 5.146393
8461 424 1 9.546267 2.125533 -4.466032
8462 424 1 10.516267 2.204805 -4.386072
8463 424 1 11.486267 2.139262 -4.418455
8464 424 1 12.456267 2.172846 -4.352886
8465 424 1 13.426267 2.115811 -4.353468
8466 424 1 14.396267 2.093818 -4.357076
8467 424 1 15.366267 2.060194 -4.324090
8468 424 1 16.336267 2.123329 -4.318641
8469 424 1 17.306267 2.121587 -4.360716
8470 424 1 18.276267 2.119014 -4.347057
8471 424 1 19.246267 2.097600 -4.399992
8472 424 1 20.216267 2.166516 -4.485138
8473 424 1 21.186267 2.103299 -4.470195
8474 424 1 22.156267 2.189155 -4.482246
8475 424 1 23.126267 2.155016 -4.477632
8476 424 1 24.096267 2.117187 -4.467055
8477 424 1 25.066267 2.180847 -4.387746
8478 424 1 26.036267 2.131129 -4.443992
8479 424 1 27.006267 2.072846 -4.420081
8480 424 1 27.976267 2.073281 -4.318010
8481 425 1 -2.959921 2.966612 7.679055
8482 425 1 -1.989921 3.033615 7.654548
8483 425 1 -1.019921 2.925826 7.675913
8484 425 1 -0.049921 2.912060 7.777158
8485 425 1 0.920079 2.935434 7.710920
8486 425 1 1.890079 3.038624 7.785144
8487 425 1 2.860079 2.971304 7.785061
8488 425 1 3.830079 2.951384 7.744599
8489 425 1 4.800079 2.953951 7.651209
8490 425 1 5.770079 3.070298 7.730128
8491 425 1 6.740079 2.979574 7.637331
8492 425 1 7.710079 3.087691 7.652934
8493 425 1 8.680079 3.104959 7.812857
8494 425 1 9.650079 2.997731 7.807964
8495 425 1 10.620079 2.920903 7.769141
8496 425 1 11.590079 2.916339 7.641249
8497 425 1 12.560079 3.017221 7.719232
8498 425 1 13.530079 3.059675 7.675483
8499 425 1 14.500079 2.959030 7.809531
8500 425 1 15.470079 3.016038 7.642317
8501 426 1 8.376851 6.177134 5.506539
8502 426 1 9.346851 6.020959 5.576595
8503 426 1 10.316851 6.116584 5.439991
8504 426 1 11.286851 6.211035 5.620386
8505 426 1 12.256851 6.098380 5.570939
8506 426 1 13.226851 6.074587 5.463981
8507 426 1 14.196851 6.037447 5.584225
8508 426 1 15.166851 6.196856 5.522627
8509 426 1 16.136851 6.200893 5.546007
8510 426 1 17.106851 6.119533 5.500225
8511 426 1 18.076851 6.127033 5.489197
8512 426 1 19.046851 6.130390 5.443595
8513 426 1 20.016851 6.167938 5.542374
8514 426 1 20.986851 6.134569 5.555302
8515 426 1 21.956851 6.102435 5.485426
8516 426 1 22.926851 6.146835 5.619776
8517 426 1 23.896851 6.145734 5.622588
8518 426 1 24.866851 6.109398 5.625109
8519 426 1 25.836851 6.019186 5.623973
8520 426 1 26.806851 6.116946 5.440271
8521 427 1 5.535063 -2.017315 -0.611264
8522 427 1 6.505063 -2.037410 -0.608826
8523 427 1 7.475063 -2.053806 -0.638668
8524 427 1 8.445063 -2.010513 -0.560085
8525 427 1 9.415063 -1.985835 -0.442606
8526 427 1 10.385063 -1.889466 -0.499500
8527 427 1 11.355063 -1.994936 -0.554924
8528 427 1 12.325063 -2.069930 -0.611839
8529 427 1 13.295063 -1.988871 -0.468313
8530 427 1 14.265063 -1.990754 -0.559726
8531 427 1 15.235063 -1.882699 -0.525517
8532 427 1 16.205063 -1.971343 -0.596493
8533 427 1 17.175063 -1.880154 -0.521986
8534 427 1 18.145063 -2.017750 -0.520528
8535 427 1 19.115063 -2.009816 -0.479905
8536 427 1 20.085063 -1.961959 -0.484074
8537 427 1 21.055063 -1.942403 -0.606801
8538 427 1 22.025063 -2.062573 -0.539680
8539 427 1 22.995063 -1.974679 -0.465922
8540 427 1 23.965063 -1.935258 -0.549798
8541 428 1 -6.144891 -1.061604 4.076526
8542 428 1 -5.174891 -1.102954 3.938692
8543 428 1 -4.204891 -1.086443 3.936764
8544 428 1 -3.234891 -0.943227 4.038794
8545 428 1 -2.264891 -0.944312 3.988909
8546 428 1 -1.294891 -1.092274 4.065026
8547 428 1 -0.324891 -1.070293 3.944265
8548 428 1 0.645109 -1.060740 3.988539
8549 428 1 1.615109 -1.072285 4.061833
8550 428 1 2.585109 -1.002088 3.978869
8551 428 1 3.555109 -0.978062 4.080065
8552 428 1 4.525109 -1.101837 4.092444
8553 428 1 5.495109 -0.979952 4.103690
8554 428 1 6.465109 -0.951806 4.109995
8555 428 1 7.435109 -0.945191 4.033718
8556 428 1 8.405109 -1.002055 3.960843
8557 428 1 9.375109 -1.104145 3.956861
8558 428 1 10.345109 -0.971562 4.094083
8559 428 1 11.315109 -1.097440 4.051746
8560 428 1 12.285109 -1.106639 4.053620
8561 429 1 -0.625738 5.102790 -7.682535
8562 429 1 0.344262 5.122379 -7.521806
8563 429 1 1.314262 5.071299 -7.579187
8564 429 1 2.284262 5.138461 -7.639891
8565 429 1 3.254262 5.155193 -7.531146
8566 429 1 4.224262 5.075279 -7.554670
8567 429 1 5.194262 5.042235 -7.543962
8568 429 1 6.164262 5.002886 -7.594384
8569 429 1 7.134262 5.062467 -7.648478
8570 429 1 8.104262 5.001542 -7.625255
8571 429 1 9.074262 5.148222 -7.647702
8572 429 1 10.044262 5.109928 -7.689440
8573 429 1 11.014262 5.057780 -7.518937
8574 429 1 11.984262 5.086383 -7.542429
8575 429 1 12.954262 5.049268 -7.709178
8576 429 1 13.924262 4.997399 -7.593477
8577 429 1 14.894262 5.069216 -7.557689
8578 429 1 15.864262 4.995509 -7.549117
8579 429 1 16.834262 5.146674 -7.601504
8580 429 1 17.804262 5.089914 -7.597091
8581 430 1 -4.397001 -1.412705 -9.544874
8582 430 1 -3.427001 -1.535037 -9.515074
8583 430 1 -2.457001 -1.510258 -9.617749
8584 430 1 -1.487001 -1.382114 -9.449574
8585 430 1 -0.517001 -1.360899 -9.548165
8586 430 1 0.452999 -1.441517 -9.442328
8587 430 1 1.422999 -1.514426 -9.451082
8588 430 1 2.392999 -1.403510 -9.486358
8589 430 1 3.362999 -1.489414 -9.557786
8590 430 1 4.332999 -1.379459 -9.527359
8591 430 1 5.302999 -1.428955 -9.500870
8592 430 1 6.272999 -1.456486 -9.615657
8593 430 1 7.242999 -1.389413 -9.449061
8594 430 1 8.212999 -1.524536 -9.451107
8595 430 1 9.182999 -1.514860 -9.442582
8596 430 1 10.152999 -1.402347 -9.494500
8597 430 1 11.122999 -1.396685 -9.430884
8598 430 1 12.092999 -1.449530 -9.435878
8599 430 1 13.062999 -1.357775 -9.548066
8600 430 1 14.032999 -1.342260 -9.463881
8601 431 1 9.244298 6.595292 -5.597831
8602 431 1 10.214298 6.634583 -5.750529
8603 431 1 11.184298 6.570937 -5.744871
8604 431 1 12.154298 6.604619 -5.666018
8605 431 1 13.124298 6.715351 -5.724594
8606 431 1 14.094298 6.730784 -5.749969
8607 431 1 15.064298 6.728858 -5.677571
8608 431 1 16.034298 6.598813 -5.672460
8609 431 1 17.004298 6.655659 -5.685661
8610 431 1 17.974298 6.594956 -5.691304
8611 431 1 18.944298 6.709718 -5.778871
8612 431 1 19.914298 6.705073 -5.606181
8613 431 1 20.884298 6.728269 -5.652075
8614 431 1 21.854298 6.721738 -5.715845
8615 431 1 22.824298 6.546338 -5.668499
8616 431 1 23.794298 6.586116 -5.743743
8617 431 1 24.764298 6.623823 -5.638956
8618 431 1 25.734298 6.627068 -5.702231
8619 431 1 26.704298 6.616140 -5.768947
8620 431 1 27.674298 6.739781 -5.741007
8621 432 1 2.064941 -7.968210 3.946940
8622 432 1 3.034941 -7.881700 3.947958
8623 432 1 4.004941 -7.877195 3.937429
8624 432 1 4.974941 -7.976376 3.966478
8625 432 1 5.944941 -7.997146 3.988295
8626 432 1 6.914941 -7.932132 3.989494
8627 432 1 7.884941 -8.003917 4.004303
8628 432 1 8.854941 -8.071540 3.922406
8629 432 1 9.824941 -8.016609 4.019813
8630 432 1 10.794941 -7.915530 3.865149
8631 432 1 11.764941 -7.926949 3.859450
8632 432 1 12.734941 -8.020324 3.848653
8633 432 1 13.704941 -8.045640 4.029875
8634 432 1 14.674941 -7.978862 3.920577
8635 432 1 15.644941 -8.060756 3.899213
8636 432 1 16.614941 -7.952031 3.973840
8637 432 1 17.584941 -8.024430 3.988183
8638 432 1 18.554941 -8.007430 3.954668
8639 432 1 19.524941 -7.949577 3.990478
8640 432 1 20.494941 -7.899815 3.970485
8641 433 1 -3.166010 -7.678747 5.721042
8642 433 1 -2.196010 -7.825321 5.872801
8643 433 1 -1.226010 -7.676792 5.904058
8644 433 1 -0.256010 -7.839584 5.717719
8645 433 1 0.713990 -7.839414 5.808057
8646 433 1 1.683990 -7.780041 5.780343
8647 433 1 2.653990 -7.841151 5.875684
8648 433 1 3.623990 -7.746655 5.769321
8649 433 1 4.593990 -7.855763 5.768124
8650 433 1 5.563990 -7.696815 5.748057
8651 433 1 6.533990 -7.745229 5.832370
8652 433 1 7.503990 -7.865030 5.761258
8653 433 1 8.473990 -7.848075 5.742900
8654 433 1 9.443990 -7.742827 5.879077
8655 433 1 10.413990 -7.756689 5.824242
8656 433 1 11.383990 -7.804289 5.841850
8657 433 1 12.353990 -7.805428 5.832973
8658 433 1 13.323990 -7.687003 5.860576
8659 433 1 14.293990 -7.812969 5.891506
8660 433 1 15.263990 -7.670368 5.721680
8661 434 1 7.651996 1.981132 -7.562074
8662 434 1 8.621996 2.011947 -7.614417
8663 434 1 9.591996 1.977911 -7.525844
8664 434 1 10.561996 2.061554 -7.498195
8665 434 1 11.531996 2.084675 -7.602972
8666 434 1 12.501996 2.045424 -7.456298
8667 434 1 13.471996 2.112436 -7.546757
8668 434 1 14.441996 2.041552 -7.501525
8669 434 1 15.411996 2.073452 -7.466578
8670 434 1 16.381996 1.997607 -7.630829
8671 434 1 17.351996 2.055719 -7.499368
8672 434 1 18.321996 2.012035 -7.462112
8673 434 1 19.291996 2.059065 -7.492667
8674 434 1 20.261996 2.050453 -7.438645
8675 434 1 21.231996 2.121703 -7.542029
8676 434 1 22.201996 1.947603 -7.613430
8677 434 1 23.171996 1.999945 -7.448642
8678 434 1 24.141996 2.094859 -7.535284
8679 434 1 25.111996 2.116717 -7.632186
8680 434 1 26.081996 2.131768 -7.575377
8681 435 1 -5.660862 7.614583 -5.356706
8682 435 1 -4.690862 7.459212 -5.360115
8683 435 1 -3.720862 7.514541 -5.392987
8684 435 1 -2.750862 7.473482 -5.486548
8685 435 1 -1.780862 7.489899 -5.306123
8686 435 1 -0.810862 7.466211 -5.332033
8687 435 1 0.159138 7.634882 -5.371542
8688 435 1 1.129138 7.465836 -5.366257
8689 435 1 2.099138 7.586184 -5.474715
8690 435 1 3.069138 7.548176 -5.420256
8691 435 1 4.039138 7.460453 -5.493542
8692 435 1 5.009138 7.558310 -5.470654
8693 435 1 5.979138 7.573795 -5.435858
8694 435 1 6.949138 7.607943 -5.454958
8695 435 1 7.919138 7.452100 -5.348717
8696 435 1 8.889138 7.526578 -5.399402
8697 435 1 9.859138 7.539783 -5.409151
8698 435 1 10.829138 7.510021 -5.445795
8699 435 1 11.799138 7.591898 -5.342234
8700 435 1 12.769138 7.479755 -5.347708
8701 436 1 2.155459 -4.196459 0.261156
8702 436 1 3.125459 -4.212252 0.204281
8703 436 1 4.095459 -4.302545 0.136281
8704 436 1 5.065459 -4.328037 0.308158
8705 436 1 6.035459 -4.304163 0.247767
8706 436 1 7.005459 -4.262042 0.311237
8707 436 1 7.975459 -4.196101 0.283141
8708 436 1 8.945459 -4.275881 0.285696
8709 436 1 9.915459 -4.237723 0.124872
8710 436 1 10.885459 -4.332952 0.244130
8711 436 1 11.855459 -4.229721 0.220884
8712 436 1 12.825459 -4.171479 0.202593
8713 436 1 13.795459 -4.277923 0.181893
8714 436 1 14.765459 -4.260753 0.248158
8715 436 1 15.735459 -4.163040 0.263437
8716 436 1 16.705459 -4.335581 0.182187
8717 436 1 17.675459 -4.241411 0.299472
8718 436 1 18.645459 -4.273875 0.212608
8719 436 1 19.615459 -4.266003 0.237650
8720 436 1 20.585459 -4.302849 0.235931
8721 437 1 -0.292556 9.903371 7.312066
8722 437 1 0.677444 9.815969 7.342704
8723 437 1 1.647444 9.967249 7.303756
8724 437 1 2.617444 9.796077 7.367714
8725 437 1 3.587444 9.869022 7.361171
8726 437 1 4.557444 9.823837 7.289835
8727 437 1 5.527444 9.872984 7.420818
8728 437 1 6.497444 9.823899 7.410557
8729 437 1 7.467444 9.782060 7.359209
8730 437 1 8.437444 9.839082 7.441957
8731 437 1 9.407444 9.950084 7.294815
8732 437 1 10.377444 9.923985 7.397907
8733 437 1 11.347444 9.894206 7.274084
8734 437 1 12.317444 9.950995 7.266650
8735 437 1 13.287444 9.821696 7.420826
8736 437 1 14.257444 9.948815 7.460109
8737 437 1 15.227444 9.896464 7.364872
8738 437 1 16.197444 9.854994 7.360655
8739 437 1 17.167444 9.962407 7.425154
8740 437 1 18.137444 9.834230 7.432017
8741 438 1 9.021250 4.227252 3.796399
8742 438 1 9.991250 4.168223 3.693565
8743 438 1 10.961250 4.226465 3.826095
8744 438 1 11.931250 4.282995 3.846144
8745 438 1 12.901250 4.242036 3.853914
8746 438 1 13.871250 4.224597 3.676702
8747 438 1 14.841250 4.160681 3.839775
8748 438 1 15.811250 4.125879 3.808005
8749 438 1 16.781250 4.152397 3.796908
8750 438 1 17.751250 4.176089 3.688297
8751 438 1 18.721250 4.102353 3.831744
8752 438 1 19.691250 4.145622 3.741015
8753 438 1 20.661250 4.156140 3.861506
8754 438 1 21.631250 4.276114 3.675598
8755 438 1 22.601250 4.226634 3.852735
8756 438 1 23.571250 4.244897 3.803964
8757 438 1 24.541250 4.146270 3.757994
8758 438 1 25.511250 4.292606 3.687931
8759 438 1 26.481250 4.183607 3.702011
8760 438 1 27.451250 4.143753 3.696512
8761 439 1 9.107060 3.152254 -8.519859
8762 439 1 10.077060 3.194265 -8.474915
8763 439 1 11.047060 3.280971 -8.425276
8764 439 1 12.017060 3.204740 -8.396126
8765 439 1 12.987060 3.110084 -8.360387
8766 439 1 13.957060 3.234281 -8.362851
8767 439 1 14.927060 3.086528 -8.370474
8768 439 1 15.897060 3.230750 -8.422905
8769 439 1 16.867060 3.195790 -8.453953
8770 439 1 17.837060 3.135602 -8.455466
8771 439 1 18.807060 3.092647 -8.524345
8772 439 1 19.777060 3.255907 -8.373922
8773 439 1 20.747060 3.120750 -8.495730
8774 439 1 21.717060 3.126192 -8.504346
8775 439 1 22.687060 3.241714 -8.457710
8776 439 1 23.657060 3.104813 -8.382007
8777 439 1 24.627060 3.145640 -8.446960
8778 439 1 25.597060 3.251414 -8.477773
8779 439 1 26.567060 3.192350 -8.443034
8780 439 1 27.537060 3.200029 -8.416685
8781 440 1 -6.884992 -1.790801 -1.377292
8782 440 1 -5.914992 -1.891964 -1.470001
8783 440 1 -4.944992 -1.924917 -1.511029
8784 440 1 -3.974992 -1.904039 -1.478035
8785 440 1 -3.004992 -1.919211 -1.489732
8786 440 1 -2.034992 -1.928725 -1.462058
8787 440 1 -1.064992 -1.865989 -1.407244
8788 440 1 -0.094992 -1.834655 -1.517956
8789 440 1 0.875008 -1.948414 -1.351206
8790 440 1 1.845008 -1.878696 -1.350459
8791 440 1 2.815008 -1.824488 -1.426523
8792 440 1 3.785008 -1.862014 -1.375405
8793 440 1 4.755008 -1.843154 -1.379329
8794 440 1 5.725008 -1.948244 -1.395068
8795 440 1 6.695008 -1.872317 -1.472148
8796 440 1 7.665008 -1.827629 -1.374829
8797 440 1 8.635008 -1.925033 -1.427044
8798 440 1 9.605008 -1.857936 -1.415334
8799 440 1 10.575008 -1.872009 -1.439549
8800 440 1 11.545008 -1.881662 -1.470541
8801 441 1 -5.078319 -8.154367 2.016537
8802 441 1 -4.108319 -8.177348 2.105796
8803 441 1 -3.138319 -8.158020 2.065365
8804 441 1 -2.168319 -8.156048 2.157781
8805 441 1 -1.198319 -8.212384 1.983359
8806 441 1 -0.228319 -8.213250 2.146524
8807 441 1 0.741681 -8.133359 2.071021
8808 441 1 1.711681 -8.192010 2.085105
8809 441 1 2.681681 -8.156303 2.025375
8810 441 1 3.651681 -8.047808 2.003247
8811 441 1 4.621681 -8.234619 2.008572
8812 441 1 5.591681 -8.051731 2.114831
8813 441 1 6.561681 -8.213344 2.154359
8814 441 1 7.531681 -8.057987 2.151164
8815 441 1 8.501681 -8.098163 2.056666
8816 441 1 9.471681 -8.036541 2.109187
8817 441 1 10.441681 -8.082876 2.089363
8818 441 1 11.411681 -8.058042 2.007885
8819 441 1 12.381681 -8.162851 2.055827
8820 441 1 13.351681 -8.037655 2.116725
8821 442 1 2.780005 -8.263436 -7.566766
8822 442 1 3.750005 -8.374971 -7.710214
8823 442 1 4.720005 -8.420594 -7.616490
8824 442 1 5.690005 -8.310311 -7.555269
8825 442 1 6.660005 -8.364376 -7.572350
8826 442 1 7.630005 -8.349176 -7.655111
8827 442 1 8.600005 -8.353803 -7.535286
8828 442 1 9.570005 -8.435466 -7.572016
8829 442 1 10.540005 -8.370158 -7.648650
8830 442 1 11.510005 -8.313125 -7.594116
8831 442 1 12.480005 -8.260206 -7.602184
8832 442 1 13.450005 -8.308132 -7.541924
8833 442 1 14.420005 -8.294890 -7.560360
8834 442 1 15.390005 -8.276067 -7.628924
8835 442 1 16.360005 -8.309111 -7.658828
8836 442 1 17.330005 -8.319627 -7.611073
8837 442 1 18.300005 -8.311648 -7.727280
8838 442 1 19.270005 -8.302547 -7.683713
8839 442 1 20.240005 -8.436808 -7.667990
8840 442 1 21.210005 -8.306037 -7.568750
8841 443 1 -4.800566 7.384325 -2.327629
8842 443 1 -3.830566 7.448828 -2.340671
8843 443 1 -2.860566 7.486041 -2.410706
8844 443 1 -1.890566 7.355491 -2.284855
8845 443 1 -0.920566 7.503122 -2.277978
8846 443 1 0.049434 7.451958 -2.292529
8847 443 1 1.019434 7.415680 -2.408325
8848 443 1 1.989434 7.345938 -2.360344
8849 443 1 2.959434 7.397017 -2.421431
8850 443 1 3.929434 7.442479 -2.357664
8851 443 1 4.899434 7.524751 -2.349849
8852 443 1 5.869434 7.435755 -2.295681
8853 443 1 6.839434 7.342800 -2.327572
8854 443 1 7.809434 7.407426 -2.297142
8855 443 1 8.779434 7.423063 -2.391852
8856 443 1 9.749434 7.507390 -2.430541
8857 443 1 10.719434 7.432167 -2.448730
8858 443 1 11.689434 7.391598 -2.360810
8859 443 1 12.659434 7.397085 -2.417032
8860 443 1 13.629434 7.488139 -2.354313
8861 444 1 -4.519406 6.855230 8.182793
8862 444 1 -3.549406 6.824375 8.157809
8863 444 1 -2.579406 6.898238 8.080702
8864 444 1 -1.609406 6.855233 8.177177
8865 444 1 -0.639406 6.740585 8.121964
8866 444 1 0.330594 6.932445 8.087724
8867 444 1 1.300594 6.934976 8.156871
8868 444 1 2.270594 6.901107 8.149648
8869 444 1 3.240594 6.859389 8.137852
8870 444 1 4.210594 6.803332 8.102976
8871 444 1 5.180594 6.764788 8.218457
8872 444 1 6.150594 6.924172 8.117304
8873 444 1 7.120594 6.901447 8.217318
8874 444 1 8.090594 6.843593 8.194540
8875 444 1 9.060594 6.897176 8.209000
8876 444 1 10.030594 6.738721 8.258864
8877 444 1 11.000594 6.806979 8.074941
8878 444 1 11.970594 6.818151 8.187119
8879 444 1 12.940594 6.753372 8.270742
8880 444 1 13.910594 6.889135 8.112030
8881 445 1 -3.530404 -2.199503 9.714330
8882 445 1 -2.560404 -2.238230 9.867350
8883 445 1 -1.590404 -2.316759 9.784229
8884 445 1 -0.620404 -2.279873 9.854399
8885 445 1 0.349596 -2.359649 9.755676
8886 445 1 1.319596 -2.194589 9.785599
8887 445 1 2.289596 -2.285647 9.906292
8888 445 1 3.259596 -2.210468 9.900796
8889 445 1 4.229596 -2.207000 9.877673
8890 445 1 5.199596 -2.275338 9.833502
8891 445 1 6.169596 -2.291940 9.827368
8892 445 1 7.139596 -2.209347 9.794616
8893 445 1 8.109596 -2.248125 9.902852
8894 445 1 9.079596 -2.188125 9.757838
8895 445 1 10.049596 -2.199030 9.787413
8896 445 1 11.019596 -2.200329 9.787006
8897 445 1 11.989596 -2.207304 9.724322
8898 445 1 12.959596 -2.214832 9.753750
8899 445 1 13.929596 -2.360909 9.763359
8900 445 1 14.899596 -2.231003 9.841029
8901 446 1 5.168385 -9.872010 7.730281
8902 446 1 6.138385 -9.887529 7.838596
8903 446 1 7.108385 -9.946692 7.843059
8904 446 1 8.078385 -9.880529 7.737092
8905 446 1 9.048385 -9.932766 7.801553
8906 446 1 10.018385 -10.027723 7.698240
8907 446 1 10.988385 -10.034297 7.815196
8908 446 1 11.958385 -10.035579 7.740699
8909 446 1 12.928385 -9.874887 7.813678
8910 446 1 13.898385 -9.981991 7.721846
8911 446 1 14.868385 -9.911442 7.784566
8912 446 1 15.838385 -9.960944 7.811215
8913 446 1 16.808385 -10.027140 7.698905
8914 446 1 17.778385 -9.843716 7.715769
8915 446 1 18.748385 -9.888279 7.834644
8916 446 1 19.718385 -9.889758 7.858475
8917 446 1 20.688385 -9.901372 7.769267
8918 446 1 21.658385 -9.991519 7.730130
8919 446 1 22.628385 -9.859497 7.735529
8920 446 1 23.598385 -9.911185 7.777926
8921 447 1 3.594781 -3.786691 -9.425372
8922 447 1 4.564781 -3.792147 -9.549921
8923 447 1 5.534781 -3.745737 -9.569664
8924 447 1 6.504781 -3.714497 -9.511753
8925 447 1 7.474781 -3.725773 -9.396464
8926 447 1 8.444781 -3.800684 -9.518937
8927 447 1 9.414781 -3.774403 -9.500432
8928 447 1 10.384781 -3.808958 -9.487049
8929 447 1 11.354781 -3.800679 -9.446319
8930 447 1 12.324781 -3.803087 -9.431071
8931 447 1 13.294781 -3.799760 -9.503756
8932 447 1 14.264781 -3.768434 -9.393163
8933 447 1 15.234781 -3.820871 -9.439218
8934 447 1 16.204781 -3.819894 -9.484889
8935 447 1 17.174781 -3.716353 -9.432273
8936 447 1 18.144781 -3.791088 -9.524207
8937 447 1 19.114781 -3.791316 -9.460957
8938 447 1 20.084781 -3.690676 -9.517408
8939 447 1 21.054781 -3.828267 -9.480759
8940 447 1 22.024781 -3.692351 -9.529737
8941 448 1 0.797479 -8.723719 3.126227
8942 448 1 1.767479 -8.653475 3.025895
8943 448 1 2.737479 -8.785200 3.128075
8944 448 1 3.707479 -8.603481 3.098594
8945 448 1 4.677479 -8.770263 3.153887
8946 448 1 5.647479 -8.638442 3.057216
8947 448 1 6.617479 -8.662429 3.077383
8948 448 1 7.587479 -8.667442 3.028348
8949 448 1 8.557479 -8.653808 3.029426
8950 448 1 9.527479 -8.647381 2.982162
8951 448 1 10.497479 -8.785778 3.066727
8952 448 1 11.467479 -8.607990 2.978761
8953 448 1 12.437479 -8.764458 3.088895
8954 448 1 13.407479 -8.704632 3.142289
8955 448 1 14.377479 -8.784029 3.143301
8956 448 1 15.347479 -8.618900 2.959019
8957 448 1 16.317479 -8.627564 3.070116
8958 448 1 17.287479 -8.753248 2.955772
8959 448 1 18.257479 -8.605722 3.125706
8960 448 1 19.227479 -8.623922 3.120674
8961 449 1 5.317061 9.486048 1.590261
8962 449 1 6.287061 9.367463 1.616152
8963 449 1 7.257061 9.393760 1.560767
8964 449 1 8.227061 9.392130 1.662697
8965 449 1 9.197061 9.303174 1.506554
8966 449 1 10.167061 9.368078 1.580842
8967 449 1 11.137061 9.416022 1.634202
8968 449 1 12.107061 9.297836 1.532615
8969 449 1 13.077061 9.446165 1.515406
8970 449 1 14.047061 9.473908 1.600369
8971 449 1 15.017061 9.419082 1.565067
8972 449 1 15.987061 9.357300 1.545523
8973 449 1 16.957061 9.344119 1.512366
8974 449 1 17.927061 9.323440 1.511947
8975 449 1 18.897061 9.339066 1.522417
8976 449 1 19.867061 9.353005 1.501103
8977 449 1 20.837061 9.405840 1.552400
8978 449 1 21.807061 9.315139 1.582495
8979 449 1 22.777061 9.400134 1.474897
8980 449 1 23.747061 9.441616 1.663285
8981 450 1 -4.589037 -7.109356 1.338964
8982 450 1 -3.619037 -7.070896 1.239920
8983 450 1 -2.649037 -7.053004 1.360570
8984 450 1 -1.679037 -7.137825 1.426278
8985 450 1 -0.709037 -7.159943 1.419306
8986 450 1 0.260963 -7.123555 1.416030
8987 450 1 1.230963 -7.130730 1.430025
8988 450 1 2.200963 -7.179595 1.337372
8989 450 1 3.170963 -7.018805 1.280537
8990 450 1 4.140963 -6.997892 1.366946
8991 450 1 5.110963 -7.009283 1.319170
8992 450 1 6.080963 -7.052434 1.345032
8993 450 1 7.050963 -7.178109 1.236084
8994 450 1 8.020963 -7.117606 1.243634
8995 450 1 8.990963 -7.145625 1.277736
8996 450 1 9.960963 -7.125178 1.274595
8997 450 1 10.930963 -7.143480 1.388602
8998 450 1 11.900963 -7.164713 1.303006
8999 450 1 12.870963 -7.132820 1.317567
9000 450 1 13.840963 -7.170032 1.412817
9001 451 1 -0.406744 1.532126 -4.079945
9002 451 1 0.563256 1.436204 -4.186205
9003 451 1 1.533256 1.521517 -4.034883
9004 451 1 2.503256 1.374442 -4.102908
9005 451 1 3.473256 1.463335 -4.122055
9006 451 1 4.443256 1.509938 -4.172048
9007 451 1 5.413256 1.519797 -4.129192
9008 451 1 6.383256 1.421786 -4.187362
9009 451 1 7.353256 1.381286 -4.006655
9010 451 1 8.323256 1.408389 -4.055956
9011 451 1 9.293256 1.487569 -4.179341
9012 451 1 10.263256 1.532479 -4.138127
9013 451 1 11.233256 1.372891 -4.055270
9014 451 1 12.203256 1.557588 -4.001819
9015 451 1 13.173256 1.429335 -4.116774
9016 451 1 14.143256 1.531930 -4.149575
9017 451 1 15.113256 1.464363 -4.127026
9018 451 1 16.083256 1.388797 -4.093074
9019 451 1 17.053256 1.451561 -4.179531
9020 451 1 18.023256 1.520706 -4.052445
9021 452 1 -8.342749 -4.676893 6.446855
9022 452 1 -7.372749 -4.553533 6.477642
9023 452 1 -6.402749 -4.734404 6.438692
9024 452 1 -5.432749 -4.695933 6.353741
9025 452 1 -4.462749 -4.624739 6.467435
9026 452 1 -3.492749 -4.609431 6.456592
9027 452 1 -2.522749 -4.706373 6.378875
9028 452 1 -1.552749 -4.577956 6.387121
9029 452 1 -0.582749 -4.570652 6.489787
9030 452 1 0.387251 -4.647983 6.432304
9031 452 1 1.357251 -4.703853 6.497293
9032 452 1 2.327251 -4.668498 6.455448
9033 452 1 3.297251 -4.654150 6.492621
9034 452 1 4.267251 -4.669504 6.444139
9035 452 1 5.237251 -4.620885 6.482911
9036 452 1 6.207251 -4.666872 6.407139
9037 452 1 7.177251 -4.601297 6.499315
9038 452 1 8.147251 -4.639489 6.363504
9039 452 1 9.117251 -4.724060 6.389089
9040 452 1 10.087251 -4.728299 6.393985
9041 453 1 2.374918 -6.340345 -1.546990
9042 453 1 3.344918 -6.333536 -1.533207
9043 453 1 4.314918 -6.460278 -1.682597
9044 453 1 5.284918 -6.350826 -1.497097
9045 453 1 6.254918 -6.460414 -1.649190
9046 453 1 7.224918 -6.460692 -1.545620
9047 453 1 8.194918 -6.421829 -1.502646
9048 453 1 9.164918 -6.368208 -1.628429
9049 453 1 10.134918 -6.320396 -1.522793
9050 453 1 11.104918 -6.324105 -1.625749
9051 453 1 12.074918 -6.412353 -1.518098
9052 453 1 13.044918 -6.416738 -1.564811
9053 453 1 14.014918 -6.431741 -1.576085
9054 453 1 14.984918 -6.330097 -1.587315
9055 453 1 15.954918 -6.454973 -1.598774
9056 453 1 16.924918 -6.462605 -1.555801
9057 453 1 17.894918 -6.426107 -1.538224
9058 453 1 18.864918 -6.468046 -1.647260
9059 453 1 19.834918 -6.369421 -1.664015
9060 453 1 20.804918 -6.362383 -1.532768
9061 454 1 2.482272 8.692558 -7.221321
9062 454 1 3.452272 8.617447 -7.226104
9063 454 1 4.422272 8.738261 -7.097558
9064 454 1 5.392272 8.676518 -7.103288
9065 454 1 6.362272 8.744162 -7.228521
9066 454 1 7.332272 8.610280 -7.070897
9067 454 1 8.302272 8.757104 -7.085524
9068 454 1 9.272272 8.643641 -7.097233
9069 454 1 10.242272 8.593466 -7.212506
9070 454 1 11.212272 8.753486 -7.089666
9071 454 1 12.182272 8.755903 -7.200558
9072 454 1 13.152272 8.741212 -7.095865
9073 454 1 14.122272 8.623375 -7.206668
9074 454 1 15.092272 8.607579 -7.137543
9075 454 1 16.062272 8.734141 -7.092033
9076 454 1 17.032272 8.690655 -7.243583
9077 454 1 18.002272 8.681985 -7.202345
9078 454 1 18.972272 8.576039 -7.135834
9079 454 1 19.942272 8.699695 -7.132422
9080 454 1 20.912272 8.717537 -7.108687
9081 455 1 -2.644078 -9.467499 9.539607
9082 455 1 -1.674078 -9.379534 9.627514
9083 455 1 -0.704078 -9.553875 9.678803
9084 455 1 0.265922 -9.366549 9.563175
9085 455 1 1.235922 -9.377844 9.576029
9086 455 1 2.205922 -9.391507 9.639035
9087 455 1 3.175922 -9.413428 9.567949
9088 455 1 4.145922 -9.367259 9.710033
9089 455 1 5.115922 -9.489914 9.611043
9090 455 1 6.085922 -9.454107 9.628132
9091 455 1 7.055922 -9.376454 9.582340
9092 455 1 8.025922 -9.481559 9.729757
9093 455 1 8.995922 -9.532244 9.648485
9094 455 1 9.965922 -9.523357 9.668070
9095 455 1 10.935922 -9.430127 9.637551
9096 455 1 11.905922 -9.550863 9.579901
9097 455 1 12.875922 -9.438623 9.557892
9098 455 1 13.845922 -9.434904 9.539963
9099 455 1 14.815922 -9.429498 9.537574
9100 455 1 15.785922 -9.531523 9.598616
9101 456 1 8.993581 7.729082 0.274194
9102 456 1 9.963581 7.805542 0.215801
9103 456 1 10.933581 7.713313 0.241014
9104 456 1 11.903581 7.851919 0.244255
9105 456 1 12.873581 7.905948 0.223627
9106 456 1 13.843581 7.824284 0.394637
9107 456 1 14.813581 7.865345 0.344212
9108 456 1 15.783581 7.808745 0.210591
9109 456 1 16.753581 7.826941 0.299315
9110 456 1 17.723581 7.815798 0.312917
9111 456 1 18.693581 7.733308 0.241025
9112 456 1 19.663581 7.790214 0.365981
9113 456 1 20.633581 7.864934 0.389759
9114 456 1 21.603581 7.761731 0.293195
9115 456 1 22.573581 7.891031 0.259160
9116 456 1 23.543581 7.873515 0.330017
9117 456 1 24.513581 7.762370 0.257868
9118 456 1 25.483581 7.759778 0.292942
9119 456 1 26.453581 7.907738 0.248962
9120 456 1 27.423581 7.804063 0.265450
9121 457 1 4.982886 -1.654536 6.622743
9122 457 1 5.952886 -1.670296 6.740550
9123 457 1 6.922886 -1.838362 6.776067
9124 457 1 7.892886 -1.706242 6.635124
9125 457 1 8.862886 -1.808927 6.626206
9126 457 1 9.832886 -1.687744 6.597711
9127 457 1 10.802886 -1.820314 6.671892
9128 457 1 11.772886 -1.809857 6.715979
9129 457 1 12.742886 -1.775411 6.752402
9130 457 1 13.712886 -1.794840 6.621805
9131 457 1 14.682886 -1.711537 6.752921
9132 457 1 15.652886 -1.830962 6.746771
9133 457 1 16.622886 -1.644501 6.665690
9134 457 1 17.592886 -1.656373 6.627591
9135 457 1 18.562886 -1.802899 6.749547
9136 457 1 19.532886 -1.772948 6.759684
9137 457 1 20.502886 -1.837123 6.683334
9138 457 1 21.472886 -1.689206 6.682415
9139 457 1 22.442886 -1.669164 6.628336
9140 457 1 23.412886 -1.747437 6.664511
9141 458 1 7.196125 0.024469 2.874583
9142 458 1 8.166125 0.060227 2.762105
9143 458 1 9.136125 0.001987 2.753971
9144 458 1 10.106125 -0.036492 2.797028
9145 458 1 11.076125 0.084912 2.872567
9146 458 1 12.046125 0.087980 2.735556
9147 458 1 13.016125 -0.059622 2.759093
9148 458 1 13.986125 -0.046108 2.911180
9149 458 1 14.956125 -0.011012 2.825642
9150 458 1 15.926125 -0.058052 2.778439
9151 458 1 16.896125 -0.060481 2.874076
9152 458 1 17.866125 0.081969 2.916059
9153 458 1 18.836125 -0.059495 2.873706
9154 458 1 19.806125 -0.053353 2.823390
9155 458 1 20.776125 -0.053381 2.823983
9156 458 1 21.746125 0.112033 2.762278
9157 458 1 22.716125 0.110917 2.903013
9158 458 1 23.686125 -0.060406 2.730129
9159 458 1 24.656125 0.033678 2.896506
9160 458 1 25.626125 0.061238 2.779054
9161 459 1 -8.459796 -7.366840 6.207569
9162 459 1 -7.489796 -7.247497 6.149032
9163 459 1 -6.519796 -7.398016 6.148496
9164 459 1 -5.549796 -7.325985 6.063017
9165 459 1 -4.579796 -7.372266 6.080173
9166 459 1 -3.609796 -7.394821 6.213922
9167 459 1 -2.639796 -7.282304 6.175029
9168 459 1 -1.669796 -7.270799 6.198813
9169 459 1 -0.699796 -7.359631 6.099240
9170 459 1 0.270204 -7.271653 6.185588
9171 459 1 1.240204 -7.295511 6.195495
9172 459 1 2.210204 -7.216179 6.138127
9173 459 1 3.180204 -7.293567 6.128323
9174 459 1 4.150204 -7.359654 6.224034
9175 459 1 5.120204 -7.355482 6.214882
9176 459 1 6.090204 -7.226751 6.257326
9177 459 1 7.060204 -7.368572 6.250241
9178 459 1 8.030204 -7.390598 6.115078
9179 459 1 9.000204 -7.280797 6.168494
9180 459 1 9.970204 -7.295020 6.108375
9181 460 1 9.936634 3.777569 4.432039
9182 460 1 10.906634 3.947209 4.459202
9183 460 1 11.876634 3.924662 4.457687
9184 460 1 12.846634 3.912694 4.318835
9185 460 1 13.816634 3.878472 4.318633
9186 460 1 14.786634 3.952569 4.444029
9187 460 1 15.756634 3.781470 4.285523
9188 460 1 16.726634 3.939319 4.404434
9189 460 1 17.696634 3.930550 4.427011
9190 460 1 18.666634 3.791426 4.317760
9191 460 1 19.636634 3.896541 4.458295
9192 460 1 20.606634 3.807660 4.316809
9193 460 1 21.576634 3.933712 4.444648
9194 460 1 22.546634 3.897592 4.284747
9195 460 1 23.516634 3.893153 4.450984
9196 460 1 24.486634 3.879901 4.430509
9197 460 1 25.456634 3.810004 4.306840
9198 460 1 26.426634 3.856303 4.297886
9199 460 1 27.396634 3.916268 4.296417
9200 460 1 28.366634 3.789924 4.402982
9201 461 1 -8.246567 -5.007475 -9.243044
9202 461 1 -7.276567 -5.139649 -9.411251
9203 461 1 -6.306567 -5.098597 -9.303217
9204 461 1 -5.336567 -4.995617 -9.288421
9205 461 1 -4.366567 -5.149170 -9.268720
9206 461 1 -3.396567 -4.987756 -9.265890
9207 461 1 -2.426567 -5.038560 -9.372189
9208 461 1 -1.456567 -5.032863 -9.389399
9209 461 1 -0.486567 -5.025968 -9.301361
9210 461 1 0.483433 -4.997839 -9.262560
9211 461 1 1.453433 -5.129390 -9.305939
9212 461 1 2.423433 -5.001343 -9.278119
9213 461 1 3.393433 -5.167423 -9.265197
9214 461 1 4.363433 -5.128769 -9.335838
9215 461 1 5.333433 -5.001752 -9.411563
9216 461 1 6.303433 -5.087300 -9.312473
9217 461 1 7.273433 -5.148267 -9.250874
9218 461 1 8.243433 -5.033663 -9.400567
9219 461 1 9.213433 -5.088147 -9.334284
9220 461 1 10.183433 -4.980283 -9.254491
9221 462 1 5.979833 5.622429 -5.092132
9222 462 1 6.949833 5.599710 -4.956685
9223 462 1 7.919833 5.735655 -4.997055
9224 462 1 8.889833 5.679775 -5.111492
9225 462 1 9.859833 5.597062 -5.143835
9226 462 1 10.829833 5.669591 -4.993998
9227 462 1 11.799833 5.545922 -5.130322
9228 462 1 12.769833 5.554024 -5.048477
9229 462 1 13.739833 5.585936 -5.129148
9230 462 1 14.709833 5.563538 -5.103390
9231 462 1 15.679833 5.729384 -5.146221
9232 462 1 16.649833 5.678293 -5.057306
9233 462 1 17.619833 5.559697 -5.009150
9234 462 1 18.589833 5.591631 -5.062392
9235 462 1 19.559833 5.606790 -4.956325
9236 462 1 20.529833 5.686677 -5.129646
9237 462 1 21.499833 5.672756 -5.068619
9238 462 1 22.469833 5.619380 -5.092307
9239 462 1 23.439833 5.707108 -5.050162
9240 462 1 24.409833 5.536235 -5.025078
9241 463 1 4.406413 2.185617 6.303878
9242 463 1 5.376413 2.134468 6.331994
9243 463 1 6.346413 2.122328 6.389085
9244 463 1 7.316413 2.184218 6.491787
9245 463 1 8.286413 2.271714 6.438428
9246 463 1 9.256413 2.138064 6.346353
9247 463 1 10.226413 2.175543 6.307964
9248 463 1 11.196413 2.157400 6.471045
9249 463 1 12.166413 2.291423 6.452165
9250 463 1 13.136413 2.230613 6.436623
9251 463 1 14.106413 2.253655 6.340521
9252 463 1 15.076413 2.228035 6.399405
9253 463 1 16.046413 2.237967 6.379418
9254 463 1 17.016413 2.317206 6.436119
9255 463 1 17.986413 2.180266 6.350797
9256 463 1 18.956413 2.218896 6.496178
9257 463 1 19.926413 2.294176 6.442649
9258 463 1 20.896413 2.168754 6.403216
9259 463 1 21.866413 2.178050 6.358071
9260 463 1 22.836413 2.302005 6.379141
9261 464 1 5.133817 6.702100 4.021613
9262 464 1 6.103817 6.697850 4.097852
9263 464 1 7.073817 6.601594 4.171512
9264 464 1 8.043817 6.651569 4.018103
9265 464 1 9.013817 6.648776 4.006140
9266 464 1 9.983817 6.680747 4.160024
9267 464 1 10.953817 6.709442 4.146660
9268 464 1 11.923817 6.675974 4.185108
9269 464 1 12.893817 6.740765 4.138436
9270 464 1 13.863817 6.650943 4.177739
9271 464 1 14.833817 6.707786 4.085931
9272 464 1 15.803817 6.590002 4.125996
9273 464 1 16.773817 6.695540 4.149985
9274 464 1 17.743817 6.680558 4.015042
9275 464 1 18.713817 6.658011 4.153649
9276 464 1 19.683817 6.620217 4.027665
9277 464 1 20.653817 6.700572 4.102348
9278 464 1 21.623817 6.636831 4.011639
9279 464 1 22.593817 6.605395 4.168789
9280 464 1 23.563817 6.594033 4.098150
9281 465 1 5.805734 -6.989759 -2.961653
9282 465 1 6.775734 -6.972191 -2.827821
9283 465 1 7.745734 -6.809983 -2.808711
9284 465 1 8.715734 -6.933079 -2.826728
9285 465 1 9.685734 -6.921231 -2.938237
9286 465 1 10.655734 -6.896919 -2.882385
9287 465 1 11.625734 -6.867188 -2.937416
9288 465 1 12.595734 -6.872576 -2.781027
9289 465 1 13.565734 -6.876384 -2.897059
9290 465 1 14.535734 -6.970199 -2.871047
9291 465 1 15.505734 -6.915625 -2.899475
9292 465 1 16.475734 -6.927946 -2.820664
9293 465 1 17.445734 -6.854122 -2.780247
9294 465 1 18.415734 -6.813080 -2.886903
9295 465 1 19.385734 -6.870865 -2.919865
9296 465 1 20.355734 -6.930300 -2.931984
9297 465 1 21.325734 -6.818516 -2.920477
9298 465 1 22.295734 -6.995595 -2.956407
9299 465 1 23.265734 -6.821390 -2.793094
9300 465 1 24.235734 -6.855878 -2.854689
9301 466 1 5.883434 6.435811 7.066423
9302 466 1 6.853434 6.531481 7.116344
9303 466 1 7.823434 6.516222 7.111321
9304 466 1 8.793434 6.362294 7.163992
9305 466 1 9.763434 6.367228 7.077166
9306 466 1 10.733434 6.436099 7.200068
9307 466 1 11.703434 6.408400 7.126672
9308 466 1 12.673434 6.492241 7.049262
9309 466 1 13.643434 6.456978 7.086863
9310 466 1 14.613434 6.453093 7.108054
9311 466 1 15.583434 6.386853 7.033779
9312 466 1 16.553434 6.356204 7.098330
9313 466 1 17.523434 6.498225 7.031521
9314 466 1 18.493434 6.420324 7.209139
9315 466 1 19.463434 6.406870 7.048473
9316 466 1 20.433434 6.420146 7.066809
9317 466 1 21.403434 6.413072 7.059826
9318 466 1 22.373434 6.419867 7.086809
9319 466 1 23.343434 6.350640 7.165275
9320 466 1 24.313434 6.537428 7.066874
9321 467 1 1.156011 7.759704 8.526790
9322 467 1 2.126011 7.605212 8.602278
9323 467 1 3.096011 7.605587 8.499496
9324 467 1 4.066011 7.636276 8.469723
9325 467 1 5.036011 7.630985 8.530352
9326 467 1 6.006011 7.707597 8.621868
9327 467 1 6.976011 7.735337 8.617393
9328 467 1 7.946011 7.703916 8.637732
9329 467 1 8.916011 7.745298 8.606091
9330 467 1 9.886011 7.767573 8.632112
9331 467 1 10.856011 7.735949 8.571947
9332 467 1 11.826011 7.615971 8.525879
9333 467 1 12.796011 7.666476 8.657360
9334 467 1 13.766011 7.772942 8.644226
9335 467 1 14.736011 7.708889 8.547550
9336 467 1 15.706011 7.605295 8.565258
9337 467 1 16.676011 7.744657 8.476379
9338 467 1 17.646011 7.765340 8.535985
9339 467 1 18.616011 7.758248 8.530186
9340 467 1 19.586011 7.763545 8.507501
9341 468 1 1.960819 0.998524 4.449092
9342 468 1 2.930819 0.954162 4.414278
9343 468 1 3.900819 0.907672 4.508328
9344 468 1 4.870819 1.004091 4.460056
9345 468 1 5.840819 0.995094 4.405987
9346 468 1 6.810819 1.062285 4.334269
9347 468 1 7.780819 0.946664 4.434515
9348 468 1 8.750819 1.005877 4.360521
9349 468 1 9.720819 0.908059 4.469483
9350 468 1 10.690819 1.040994 4.439445
9351 468 1 11.660819 0.909989 4.460250
9352 468 1 12.630819 0.993227 4.511703
9353 468 1 13.600819 1.055267 4.502685
9354 468 1 14.570819 1.011279 4.376674
9355 468 1 15.540819 0.999494 4.441464
9356 468 1 16.510819 0.983426 4.405371
9357 468 1 17.480819 0.961653 4.464664
9358 468 1 18.450819 1.016265 4.410958
9359 468 1 19.420819 1.038052 4.382113
9360 468 1 20.390819 1.068348 4.410740
9361 469 1 1.159023 7.041924 9.582914
9362 469 1 2.129023 7.173824 9.591058
9363 469 1 3.099023 7.065423 9.627712
9364 469 1 4.069023 7.142324 9.688732
9365 469 1 5.039023 7.066049 9.779931
9366 469 1 6.009023 7.041238 9.745343
9367 469 1 6.979023 7.153927 9.736049
9368 469 1 7.949023 7.056298 9.599455
9369 469 1 8.919023 7.211308 9.698990
9370 469 1 9.889023 7.097971 9.705382
9371 469 1 10.859023 7.050420 9.630676
9372 469 1 11.829023 7.146919 9.663648
9373 469 1 12.799023 7.151257 9.703235
9374 469 1 13.769023 7.044327 9.720134
9375 469 1 14.739023 7.226183 9.630427
9376 469 1 15.709023 7.083497 9.597831
9377 469 1 16.679023 7.052846 9.771555
9378 469 1 17.649023 7.149266 9.740449
9379 469 1 18.619023 7.206631 9.604937
9380 469 1 19.589023 7.065453 9.750880
9381 470 1 -0.463204 -4.599054 8.283937
9382 470 1 0.506796 -4.618829 8.212429
9383 470 1 1.476796 -4.667953 8.321368
9384 470 1 2.446796 -4.568760 8.238528
9385 470 1 3.416796 -4.504688 8.249888
9386 470 1 4.386796 -4.638057 8.279496
9387 470 1 5.356796 -4.539439 8.340997
9388 470 1 6.326796 -4.638488 8.281015
9389 470 1 7.296796 -4.539085 8.244115
9390 470 1 8.266796 -4.599447 8.194388
9391 470 1 9.236796 -4.642701 8.234235
9392 470 1 10.206796 -4.514412 8.242209
9393 470 1 11.176796 -4.635786 8.302798
9394 470 1 12.146796 -4.568248 8.239171
9395 470 1 13.116796 -4.508660 8.283029
9396 470 1 14.086796 -4.627609 8.376949
9397 470 1 15.056796 -4.606571 8.285929
9398 470 1 16.026796 -4.579126 8.207995
9399 470 1 16.996796 -4.668741 8.385893
9400 470 1 17.966796 -4.621026 8.266669
9401 471 1 -9.866916 -5.310108 -7.205589
9402 471 1 -8.896916 -5.312045 -7.087911
9403 471 1 -7.926916 -5.300823 -7.233996
9404 471 1 -6.956916 -5.481039 -7.161674
9405 471 1 -5.986916 -5.451116 -7.092724
9406 471 1 -5.016916 -5.356094 -7.214313
9407 471 1 -4.046916 -5.360087 -7.208347
9408 471 1 -3.076916 -5.450983 -7.106224
9409 471 1 -2.106916 -5.454676 -7.182552
9410 471 1 -1.136916 -5.382158 -7.221069
9411 471 1 -0.166916 -5.472842 -7.209869
9412 471 1 0.803084 -5.338607 -7.210809
9413 471 1 1.773084 -5.284882 -7.116687
9414 471 1 2.743084 -5.297385 -7.178210
9415 471 1 3.713084 -5.375390 -7.220025
9416 471 1 4.683084 -5.479049 -7.223244
9417 471 1 5.653084 -5.436849 -7.206184
9418 471 1 6.623084 -5.285291 -7.135278
9419 471 1 7.593084 -5.379836 -7.152231
9420 471 1 8.563084 -5.419144 -7.107539
9421 472 1 -1.767001 1.230515 -6.935105
9422 472 1 -0.797001 1.082997 -6.956669
9423 472 1 0.172999 1.175034 -6.946607
9424 472 1 1.142999 1.051108 -6.861736
9425 472 1 2.112999 1.050042 -7.021674
9426 472 1 3.082999 1.190787 -6.894630
9427 472 1 4.052999 1.190435 -6.962129
9428 472 1 5.022999 1.206230 -6.883020
9429 472 1 5.992999 1.193280 -6.976664
9430 472 1 6.962999 1.139733 -6.998381
9431 472 1 7.932999 1.133148 -7.022745
9432 472 1 8.902999 1.161343 -7.014964
9433 472 1 9.872999 1.088740 -7.035409
9434 472 1 10.842999 1.228966 -7.038508
9435 472 1 11.812999 1.230773 -6.995105
9436 472 1 12.782999 1.110927 -7.032061
9437 472 1 13.752999 1.212122 -6.875670
9438 472 1 14.722999 1.174823 -6.864802
9439 472 1 15.692999 1.112434 -6.885176
9440 472 1 16.662999 1.086651 -6.929081
9441 473 1 0.680937 5.758147 -3.656736
9442 473 1 1.650937 5.617136 -3.789932
9443 473 1 2.620937 5.675872 -3.711682
9444 473 1 3.590937 5.753897 -3.712928
9445 473 1 4.560937 5.596548 -3.782395
9446 473 1 5.530937 5.672875 -3.672186
9447 473 1 6.500937 5.568718 -3.698188
9448 473 1 7.470937 5.592987 -3.706434
9449 473 1 8.440937 5.728436 -3.685261
9450 473 1 9.410937 5.601773 -3.686282
9451 473 1 10.380937 5.618733 -3.687026
9452 473 1 11.350937 5.662958 -3.616678
9453 473 1 12.320937 5.685515 -3.700348
9454 473 1 13.290937 5.598573 -3.722288
9455 473 1 14.260937 5.563447 -3.713363
9456 473 1 15.230937 5.702558 -3.622504
9457 473 1 16.200937 5.688796 -3.730308
9458 473 1 17.170937 5.593631 -3.771032
9459 473 1 18.140937 5.616128 -3.766676
9460 473 1 19.110937 5.642410 -3.742076
9461 474 1 3.024050 8.122753 7.550269
9462 474 1 3.994050 8.118049 7.468621
9463 474 1 4.964050 8.254028 7.544202
9464 474 1 5.934050 8.272362 7.425160
9465 474 1 6.904050 8.157454 7.597661
9466 474 1 7.874050 8.207704 7.555584
9467 474 1 8.844050 8.150627 7.543176
9468 474 1 9.814050 8.209618 7.496906
9469 474 1 10.784050 8.089729 7.584180
9470 474 1 11.754050 8.225352 7.419254
9471 474 1 12.724050 8.266477 7.604081
9472 474 1 13.694050 8.225670 7.489052
9473 474 1 14.664050 8.187288 7.443261
9474 474 1 15.634050 8.226940 7.518836
9475 474 1 16.604050 8.179063 7.524959
9476 474 1 17.574050 8.214770 7.521347
9477 474 1 18.544050 8.264171 7.599858
9478 474 1 19.514050 8.113771 7.551618
9479 474 1 20.484050 8.255555 7.536140
9480 474 1 21.454050 8.125555 7.459477
9481 475 1 -8.439182 -3.861126 0.934454
9482 475 1 -7.469182 -3.785584 0.867149
9483 475 1 -6.499182 -3.891302 0.927492
9484 475 1 -5.529182 -3.912257 0.934170
9485 475 1 -4.559182 -3.854641 0.959112
9486 475 1 -3.589182 -3.859283 0.888624
9487 475 1 -2.619182 -3.898645 1.011006
9488 475 1 -1.649182 -3.790463 0.857784
9489 475 1 -0.679182 -3.812344 1.023837
9490 475 1 0.290818 -3.786238 0.888143
9491 475 1 1.260818 -3.748859 0.894222
9492 475 1 2.230818 -3.892611 1.011114
9493 475 1 3.200818 -3.736697 0.866833
9494 475 1 4.170818 -3.892357 0.985824
9495 475 1 5.140818 -3.753389 0.966337
9496 475 1 6.110818 -3.744669 0.872661
9497 475 1 7.080818 -3.727791 0.893610
9498 475 1 8.050818 -3.888622 0.930934
9499 475 1 9.020818 -3.817531 1.025501
9500 475 1 9.990818 -3.777713 0.947053
9501 476 1 9.535733 -3.836787 -8.412230
9502 476 1 10.505733 -3.937761 -8.508741
9503 476 1 11.475733 -3.909896 -8.415573
9504 476 1 12.445733 -3.901306 -8.484291
9505 476 1 13.415733 -3.864094 -8.586593
9506 476 1 14.385733 -3.804829 -8.515025
9507 476 1 15.355733 -3.923196 -8.598026
9508 476 1 16.325733 -3.806892 -8.426539
9509 476 1 17.295733 -3.973188 -8.583879
9510 476 1 18.265733 -3.810841 -8.601384
9511 476 1 19.235733 -3.844659 -8.528464
9512 476 1 20.205733 -3.956326 -8.527835
9513 476 1 21.175733 -3.918560 -8.578692
9514 476 1 22.145733 -3.982063 -8.449534
9515 476 1 23.115733 -3.947505 -8.566499
9516 476 1 24.085733 -3.933733 -8.581979
9517 476 1 25.055733 -3.925079 -8.415696
9518 476 1 26.025733 -3.924012 -8.582688
9519 476 1 26.995733 -3.980489 -8.532661
9520 476 1 27.965733 -3.986768 -8.473780
9521 477 1 7.448498 9.413213 -4.730523
9522 477 1 8.418498 9.357328 -4.650800
9523 477 1 9.388498 9.453215 -4.648412
9524 477 1 10.358498 9.394066 -4.716758
9525 477 1 11.328498 9.449874 -4.648628
9526 477 1 12.298498 9.328110 -4.669879
9527 477 1 13.268498 9.359920 -4.665098
9528 477 1 14.238498 9.453386 -4.583757
9529 477 1 15.208498 9.435198 -4.703359
9530 477 1 16.178498 9.471083 -4.704843
9531 477 1 17.148498 9.362419 -4.594826
9532 477 1 18.118498 9.492450 -4.763097
9533 477 1 19.088498 9.393750 -4.750243
9534 477 1 20.058498 9.367232 -4.711746
9535 477 1 21.028498 9.378130 -4.648262
9536 477 1 21.998498 9.319059 -4.674072
9537 477 1 22.968498 9.436352 -4.684246
9538 477 1 23.938498 9.468395 -4.674029
9539 477 1 24.908498 9.354407 -4.741449
9540 477 1 25.878498 9.429222 -4.619973
9541 478 1 -2.669528 -4.231819 4.638459
9542 478 1 -1.699528 -4.302280 4.599531
9543 478 1 -0.729528 -4.165717 4.656893
9544 478 1 0.240472 -4.146819 4.551122
9545 478 1 1.210472 -4.273181 4.645549
9546 478 1 2.180472 -4.243671 4.632195
9547 478 1 3.150472 -4.249502 4.535832
9548 478 1 4.120472 -4.248381 4.651756
9549 478 1 5.090472 -4.225045 4.628692
9550 478 1 6.060472 -4.223756 4.551719
9551 478 1 7.030472 -4.189565 4.531248
9552 478 1 8.000472 -4.249251 4.576892
9553 478 1 8.970472 -4.279406 4.475257
9554 478 1 9.940472 -4.223104 4.573828
9555 478 1 10.910472 -4.282130 4.649527
9556 478 1 11.880472 -4.260151 4.567105
9557 478 1 12.850472 -4.285588 4.588745
9558 478 1 13.820472 -4.211575 4.566075
9559 478 1 14.790472 -4.138402 4.558502
9560 478 1 15.760472 -4.325465 4.640933
9561 479 1 3.918877 4.767916 -5.888218
9562 479 1 4.888877 4.878668 -5.865292
9563 479 1 5.858877 4.901353 -5.871653
9564 479 1 6.828877 4.822954 -5.945805
9565 479 1 7.798877 4.817972 -5.907366
9566 479 1 8.768877 4.925691 -5.973244
9567 479 1 9.738877 4.940754 -5.850459
9568 479 1 10.708877 4.882638 -5.832229
9569 479 1 11.678877 4.832865 -5.815623
9570 479 1 12.648877 4.879791 -5.878154
9571 479 1 13.618877 4.787431 -5.974378
9572 479 1 14.588877 4.767288 -5.880039
9573 479 1 15.558877 4.752673 -5.927716
9574 479 1 16.528877 4.882303 -5.980460
9575 479 1 17.498877 4.850363 -5.960315
9576 479 1 18.468877 4.934201 -5.896555
9577 479 1 19.438877 4.771606 -5.858502
9578 479 1 20.408877 4.876720 -5.825068
9579 479 1 21.378877 4.771797 -5.867311
9580 479 1 22.348877 4.800482 -5.892096
9581 480 1 5.265032 -8.922500 6.731910
9582 480 1 6.235032 -8.842955 6.816582
9583 480 1 7.205032 -8.976308 6.699484
9584 480 1 8.175032 -8.896174 6.823417
9585 480 1 9.145032 -8.927364 6.751552
9586 480 1 10.115032 -9.004671 6.728705
9587 480 1 11.085032 -8.923309 6.781979
9588 480 1 12.055032 -8.892464 6.801606
9589 480 1 13.025032 -8.897153 6.672687
9590 480 1 13.995032 -8.945644 6.719236
9591 480 1 14.965032 -8.950098 6.727705
9592 480 1 15.935032 -8.988779 6.834789
9593 480 1 16.905032 -8.948440 6.744725
9594 480 1 17.875032 -9.011429 6.747557
9595 480 1 18.845032 -9.003272 6.853263
9596 480 1 19.815032 -8.893627 6.797480
9597 480 1 20.785032 -8.926634 6.716798
9598 480 1 21.755032 -8.962284 6.782961
9599 480 1 22.725032 -8.945487 6.784171
9600 480 1 23.695032 -9.035934 6.786833
9601 481 1 -2.586230 6.554218 -6.350196
9602 481 1 -1.616230 6.548290 -6.243967
9603 481 1 -0.646230 6.444459 -6.241907
9604 481 1 0.323770 6.500090 -6.253112
9605 481 1 1.293770 6.476602 -6.303404
9606 481 1 2.263770 6.482670 -6.395102
9607 481 1 3.233770 6.590293 -6.242671
9608 481 1 4.203770 6.556953 -6.265303
9609 481 1 5.173770 6.617451 -6.325486
9610 481 1 6.143770 6.502674 -6.340459
9611 481 1 7.113770 6.552762 -6.297328
9612 481 1 8.083770 6.468664 -6.243880
9613 481 1 9.053770 6.464979 -6.402269
9614 481 1 10.023770 6.458286 -6.287171
9615 481 1 10.993770 6.428521 -6.244396
9616 481 1 11.963770 6.526534 -6.218444
9617 481 1 12.933770 6.485091 -6.383350
9618 481 1 13.903770 6.488387 -6.373379
9619 481 1 14.873770 6.427760 -6.315139
9620 481 1 15.843770 6.475534 -6.318749
9621 482 1 7.550880 -8.295603 -0.697164
9622 482 1 8.520880 -8.229806 -0.801930
9623 482 1 9.490880 -8.293185 -0.693721
9624 482 1 10.460880 -8.268505 -0.698249
9625 482 1 11.430880 -8.337473 -0.796358
9626 482 1 12.400880 -8.273931 -0.725251
9627 482 1 13.370880 -8.307197 -0.649760
9628 482 1 14.340880 -8.227492 -0.713859
9629 482 1 15.310880 -8.268773 -0.726820
9630 482 1 16.280880 -8.354508 -0.827627
9631 482 1 17.250880 -8.347297 -0.790431
9632 482 1 18.220880 -8.195858 -0.830911
9633 482 1 19.190880 -8.287060 -0.732390
9634 482 1 20.160880 -8.364970 -0.772168
9635 482 1 21.130880 -8.261671 -0.702563
9636 482 1 22.100880 -8.304519 -0.733274
9637 482 1 23.070880 -8.323492 -0.820592
9638 482 1 24.040880 -8.189938 -0.720199
9639 482 1 25.010880 -8.222985 -0.668748
9640 482 1 25.980880 -8.319540 -0.765005
9641 483 1 -9.886639 7.985335 -5.974902
9642 483 1 -8.916639 7.933624 -5.962944
9643 483 1 -7.946639 8.011951 -5.866210
9644 483 1 -6.976639 8.076374 -5.931603
9645 483 1 -6.006639 8.046730 -5.892933
9646 483 1 -5.036639 8.046306 -5.971446
9647 483 1 -4.066639 7.924314 -6.020744
9648 483 1 -3.096639 7.926184 -5.971432
9649 483 1 -2.126639 7.964734 -5.900322
9650 483 1 -1.156639 8.069288 -5.936485
9651 483 1 -0.186639 7.989848 -5.965667
9652 483 1 0.783361 8.075260 -6.033283
9653 483 1 1.753361 8.095162 -5.873728
9654 483 1 2.723361 8.072723 -6.020888
9655 483 1 3.693361 7.927712 -6.016133
9656 483 1 4.663361 7.967235 -5.925138
9657 483 1 5.633361 7.994222 -5.955203
9658 483 1 6.603361 8.024934 -6.036848
9659 483 1 7.573361 8.001856 -5.856639
9660 483 1 8.543361 7.912854 -5.894306
9661 484 1 -1.719815 -9.150203 -9.466332
9662 484 1 -0.749815 -9.129766 -9.330750
9663 484 1 0.220185 -9.096358 -9.462999
9664 484 1 1.190185 -9.010612 -9.365491
9665 484 1 2.160185 -9.109357 -9.466757
9666 484 1 3.130185 -9.069289 -9.360960
9667 484 1 4.100185 -9.061587 -9.329006
9668 484 1 5.070185 -9.041409 -9.456707
9669 484 1 6.040185 -9.096616 -9.442064
9670 484 1 7.010185 -8.979928 -9.305543
9671 484 1 7.980185 -8.954433 -9.282397
9672 484 1 8.950185 -9.060309 -9.439324
9673 484 1 9.920185 -9.096928 -9.457688
9674 484 1 10.890185 -9.000653 -9.448827
9675 484 1 11.860185 -8.999728 -9.346963
9676 484 1 12.830185 -8.965464 -9.441872
9677 484 1 13.800185 -9.022484 -9.424900
9678 484 1 14.770185 -8.985651 -9.370563
9679 484 1 15.740185 -8.986773 -9.301345
9680 484 1 16.710185 -9.066459 -9.412910
9681 485 1 -3.075580 -0.674836 -2.647457
9682 485 1 -2.105580 -0.767447 -2.679460
9683 485 1 -1.135580 -0.596544 -2.649437
9684 485 1 -0.165580 -0.683985 -2.711187
9685 485 1 0.804420 -0.754250 -2.823359
9686 485 1 1.774420 -0.619514 -2.661241
9687 485 1 2.744420 -0.601865 -2.630123
9688 485 1 3.714420 -0.722056 -2.688823
9689 485 1 4.684420 -0.754605 -2.784879
9690 485 1 5.654420 -0.717641 -2.783258
9691 485 1 6.624420 -0.648560 -2.690042
9692 485 1 7.594420 -0.724788 -2.676736
9693 485 1 8.564420 -0.715231 -2.755888
9694 485 1 9.534420 -0.707727 -2.635653
9695 485 1 10.504420 -0.758767 -2.786462
9696 485 1 11.474420 -0.676266 -2.759400
9697 485 1 12.444420 -0.655983 -2.786858
9698 485 1 13.414420 -0.679888 -2.826366
9699 485 1 14.384420 -0.637973 -2.646443
9700 485 1 15.354420 -0.770813 -2.722888
9701 486 1 -2.777889 1.715947 0.324987
9702 486 1 -1.807889 1.760691 0.256605
9703 486 1 -0.837889 1.668437 0.342144
9704 486 1 0.132111 1.742168 0.349925
9705 486 1 1.102111 1.680467 0.269710
9706 486 1 2.072111 1.661136 0.209550
9707 486 1 3.042111 1.615467 0.347305
9708 486 1 4.012111 1.659207 0.262404
9709 486 1 4.982111 1.729028 0.326972
9710 486 1 5.952111 1.601202 0.228948
9711 486 1 6.922111 1.616283 0.295239
9712 486 1 7.892111 1.658542 0.246477
9713 486 1 8.862111 1.687474 0.214995
9714 486 1 9.832111 1.792266 0.297965
9715 486 1 10.802111 1.739912 0.286894
9716 486 1 11.772111 1.645515 0.235415
9717 486 1 12.742111 1.697593 0.340715
9718 486 1 13.712111 1.623289 0.251226
9719 486 1 14.682111 1.783893 0.279147
9720 486 1 15.652111 1.726580 0.341440
9721 487 1 -8.101622 -8.176913 1.359176
9722 487 1 -7.131622 -8.200766 1.289233
9723 487 1 -6.161622 -8.258990 1.280282
9724 487 1 -5.191622 -8.317288 1.331287
9725 487 1 -4.221622 -8.319384 1.391420
9726 487 1 -3.251622 -8.203597 1.294944
9727 487 1 -2.281622 -8.180063 1.402598
9728 487 1 -1.311622 -8.140031 1.353810
9729 487 1 -0.341622 -8.145716 1.352386
9730 487 1 0.628378 -8.231130 1.374794
9731 487 1 1.598378 -8.176794 1.326130
9732 487 1 2.568378 -8.301647 1.399644
9733 487 1 3.538378 -8.174881 1.338429
9734 487 1 4.508378 -8.321762 1.333701
9735 487 1 5.478378 -8.200788 1.372546
9736 487 1 6.448378 -8.317596 1.370334
9737 487 1 7.418378 -8.184434 1.405244
9738 487 1 8.388378 -8.158140 1.367982
9739 487 1 9.358378 -8.309277 1.423159
9740 487 1 10.328378 -8.220782 1.261038
9741 488 1 -4.437604 8.804981 -2.803872
9742 488 1 -3.467604 8.691320 -2.765737
9743 488 1 -2.497604 8.684280 -2.702974
9744 488 1 -1.527604 8.635402 -2.685095
9745 488 1 -0.557604 8.691512 -2.674231
9746 488 1 0.412396 8.810842 -2.816011
9747 488 1 1.382396 8.654226 -2.672933
9748 488 1 2.352396 8.817141 -2.675413
9749 488 1 3.322396 8.746581 -2.769871
9750 488 1 4.292396 8.695841 -2.796916
9751 488 1 5.262396 8.681564 -2.676463
9752 488 1 6.232396 8.745081 -2.837836
9753 488 1 7.202396 8.715669 -2.729670
9754 488 1 8.172396 8.732730 -2.705883
9755 488 1 9.142396 8.635075 -2.732819
9756 488 1 10.112396 8.648786 -2.752767
9757 488 1 11.082396 8.821247 -2.731554
9758 488 1 12.052396 8.711607 -2.748911
9759 488 1 13.022396 8.770386 -2.842579
9760 488 1 13.992396 8.709531 -2.664858
9761 489 1 -1.728669 -0.270665 -8.297685
9762 489 1 -0.758669 -0.191109 -8.339136
9763 489 1 0.211331 -0.135264 -8.262807
9764 489 1 1.181331 -0.261940 -8.303484
9765 489 1 2.151331 -0.218808 -8.329280
9766 489 1 3.121331 -0.249403 -8.226426
9767 489 1 4.091331 -0.127884 -8.188654
9768 489 1 5.061331 -0.303436 -8.324001
9769 489 1 6.031331 -0.209392 -8.262800
9770 489 1 7.001331 -0.283631 -8.330801
9771 489 1 7.971331 -0.220293 -8.288215
9772 489 1 8.941331 -0.253395 -8.241741
9773 489 1 9.911331 -0.290120 -8.299246
9774 489 1 10.881331 -0.298274 -8.274524
9775 489 1 11.851331 -0.257596 -8.323667
9776 489 1 12.821331 -0.212304 -8.208618
9777 489 1 13.791331 -0.207756 -8.273353
9778 489 1 14.761331 -0.242843 -8.254344
9779 489 1 15.731331 -0.146260 -8.251717
9780 489 1 16.701331 -0.195967 -8.146887
9781 490 1 8.974061 7.891170 -5.321053
9782 490 1 9.944061 7.911528 -5.274663
9783 490 1 10.914061 7.897186 -5.291639
9784 490 1 11.884061 7.982252 -5.180484
9785 490 1 12.854061 8.022439 -5.238957
9786 490 1 13.824061 7.936925 -5.205204
9787 490 1 14.794061 8.018851 -5.163150
9788 490 1 15.764061 7.922317 -5.187623
9789 490 1 16.734061 7.977525 -5.289448
9790 490 1 17.704061 7.893025 -5.216502
9791 490 1 18.674061 8.046705 -5.297763
9792 490 1 19.644061 7.883602 -5.158107
9793 490 1 20.614061 7.888909 -5.261899
9794 490 1 21.584061 7.886837 -5.319736
9795 490 1 22.554061 7.957914 -5.155916
9796 490 1 23.524061 8.077325 -5.244655
9797 490 1 24.494061 7.912262 -5.178839
9798 490 1 25.464061 7.927690 -5.140642
9799 490 1 26.434061 8.077829 -5.181907
9800 490 1 27.404061 8.059200 -5.229275
9801 491 1 9.533784 -4.536631 -3.475575
9802 491 1 10.503784 -4.713707 -3.491660
9803 491 1 11.473784 -4.616675 -3.587844
9804 491 1 12.443784 -4.682656 -3.549281
9805 491 1 13.413784 -4.688600 -3.555322
9806 491 1 14.383784 -4.524923 -3.488078
9807 491 1 15.353784 -4.675570 -3.441013
9808 491 1 16.323784 -4.706701 -3.416401
9809 491 1 17.293784 -4.560648 -3.506580
9810 491 1 18.263784 -4.710121 -3.455713
9811 491 1 19.233784 -4.569991 -3.464130
9812 491 1 20.203784 -4.701171 -3.547293
9813 491 1 21.173784 -4.642070 -3.439011
9814 491 1 22.143784 -4.550770 -3.537081
9815 491 1 23.113784 -4.617186 -3.511094
9816 491 1 24.083784 -4.599749 -3.431851
9817 491 1 25.053784 -4.646901 -3.478238
9818 491 1 26.023784 -4.687578 -3.495180
9819 491 1 26.993784 -4.675235 -3.473215
9820 491 1 27.963784 -4.711482 -3.584841
9821 492 1 2.311353 -0.821431 0.442910
9822 492 1 3.281353 -0.700703 0.328133
9823 492 1 4.251353 -0.712322 0.397779
9824 492 1 5.221353 -0.857366 0.422086
9825 492 1 6.191353 -0.693016 0.354430
9826 492 1 7.161353 -0.810869 0.342195
9827 492 1 8.131353 -0.843648 0.323295
9828 492 1 9.101353 -0.856700 0.306624
9829 492 1 10.071353 -0.704240 0.457517
9830 492 1 11.041353 -0.795975 0.438663
9831 492 1 12.011353 -0.745714 0.352662
9832 492 1 12.981353 -0.835659 0.351835
9833 492 1 13.951353 -0.724846 0.403987
9834 492 1 14.921353 -0.745223 0.272752
9835 492 1 15.891353 -0.817148 0.390910
9836 492 1 16.861353 -0.839292 0.453537
9837 492 1 17.831353 -0.870618 0.422974
9838 492 1 18.801353 -0.819460 0.393269
9839 492 1 19.771353 -0.850813 0.410710
9840 492 1 20.741353 -0.730873 0.323757
9841 493 1 9.075071 -3.518782 -7.604254
9842 493 1 10.045071 -3.464143 -7.563202
9843 493 1 11.015071 -3.576222 -7.529886
9844 493 1 11.985071 -3.515811 -7.460659
9845 493 1 12.955071 -3.597915 -7.471155
9846 493 1 13.925071 -3.557213 -7.542431
9847 493 1 14.895071 -3.505886 -7.642007
9848 493 1 15.865071 -3.514874 -7.607278
9849 493 1 16.835071 -3.562750 -7.519927
9850 493 1 17.805071 -3.636391 -7.615486
9851 493 1 18.775071 -3.605449 -7.579270
9852 493 1 19.745071 -3.543931 -7.638590
9853 493 1 20.715071 -3.459175 -7.500125
9854 493 1 21.685071 -3.551845 -7.576000
9855 493 1 22.655071 -3.494490 -7.630569
9856 493 1 23.625071 -3.547101 -7.598031
9857 493 1 24.595071 -3.501970 -7.521717
9858 493 1 25.565071 -3.501064 -7.549521
9859 493 1 26.535071 -3.538649 -7.560871
9860 493 1 27.505071 -3.445060 -7.612300
9861 494 1 7.443291 5.298111 -3.152344
9862 494 1 8.413291 5.239206 -3.343437
9863 494 1 9.383291 5.317230 -3.327151
9864 494 1 10.353291 5.278296 -3.344244
9865 494 1 11.323291 5.278414 -3.170082
9866 494 1 12.293291 5.282168 -3.347177
9867 494 1 13.263291 5.355581 -3.255689
9868 494 1 14.233291 5.367764 -3.219650
9869 494 1 15.203291 5.281869 -3.296639
9870 494 1 16.173291 5.263963 -3.271448
9871 494 1 17.143291 5.206467 -3.196533
9872 494 1 18.113291 5.229871 -3.165989
9873 494 1 19.083291 5.394553 -3.160321
9874 494 1 20.053291 5.282406 -3.272946
9875 494 1 21.023291 5.342222 -3.178859
9876 494 1 21.993291 5.259207 -3.284820
9877 494 1 22.963291 5.254029 -3.305724
9878 494 1 23.933291 5.383743 -3.192548
9879 494 1 24.903291 5.343856 -3.296300
9880 494 1 25.873291 5.354059 -3.330676
9881 495 1 -8.762249 -4.079896 -6.903472
9882 495 1 -7.792249 -4.047098 -6.848021
9883 495 1 -6.822249 -4.038989 -6.735960
9884 495 1 -5.852249 -4.139145 -6.882734
9885 495 1 -4.882249 -4.124950 -6.867959
9886 495 1 -3.912249 -4.090559 -6.768510
9887 495 1 -2.942249 -4.183317 -6.748952
9888 495 1 -1.972249 -4.144864 -6.761672
9889 495 1 -1.002249 -4.207295 -6.747515
9890 495 1 -0.032249 -4.091284 -6.900290
9891 495 1 0.937751 -4.051165 -6.806191
9892 495 1 1.907751 -4.173144 -6.765500
9893 495 1 2.877751 -4.077364 -6.889174
9894 495 1 3.847751 -4.069589 -6.895202
9895 495 1 4.817751 -4.127805 -6.760017
9896 495 1 5.787751 -4.144244 -6.917653
9897 495 1 6.757751 -4.145520 -6.891231
9898 495 1 7.727751 -4.045490 -6.752543
9899 495 1 8.697751 -4.128134 -6.848529
9900 495 1 9.667751 -4.044008 -6.766000
9901 496 1 -9.675049 8.094969 3.197457
9902 496 1 -8.705049 8.226594 3.210582
9903 496 1 -7.735049 8.063580 3.306844
9904 496 1 -6.765049 8.139941 3.128307
9905 496 1 -5.795049 8.208744 3.325419
9906 496 1 -4.825049 8.085000 3.154303
9907 496 1 -3.855049 8.226961 3.298671
9908 496 1 -2.885049 8.136905 3.249514
9909 496 1 -1.915049 8.062910 3.279520
9910 496 1 -0.945049 8.184877 3.223180
9911 496 1 0.024951 8.186526 3.193178
9912 496 1 0.994951 8.085648 3.183431
9913 496 1 1.964951 8.072649 3.251935
9914 496 1 2.934951 8.103859 3.250538
9915 496 1 3.904951 8.155691 3.293280
9916 496 1 4.874951 8.071403 3.281801
9917 496 1 5.844951 8.231719 3.150802
9918 496 1 6.814951 8.138974 3.277814
9919 496 1 7.784951 8.174452 3.306227
9920 496 1 8.754951 8.078595 3.206622
9921 497 1 1.341449 8.474184 1.960936
9922 497 1 2.311449 8.606677 2.087788
9923 497 1 3.281449 8.543549 1.985173
9924 497 1 4.251449 8.428874 2.058186
9925 497 1 5.221449 8.606023 2.070041
9926 497 1 6.191449 8.441266 1.932000
9927 497 1 7.161449 8.568103 2.059501
9928 497 1 8.131449 8.574647 2.061108
9929 497 1 9.101449 8.414924 1.970446
9930 497 1 10.071449 8.501095 1.921303
9931 497 1 11.041449 8.516651 1.929536
9932 497 1 12.011449 8.425596 2.056007
9933 497 1 12.981449 8.559648 1.922898
9934 497 1 13.951449 8.557459 2.094150
9935 497 1 14.921449 8.564558 2.024965
9936 497 1 15.891449 8.573637 2.079123
9937 497 1 16.861449 8.587334 2.109008
9938 497 1 17.831449 8.461542 2.109753
9939 497 1 18.801449 8.414964 2.084051
9940 497 1 19.771449 8.565306 1.953239
9941 498 1 -2.654502 -6.083404 9.379357
9942 498 1 -1.684502 -6.055372 9.444528
9943 498 1 -0.714502 -6.038565 9.528255
9944 498 1 0.255498 -6.110764 9.520537
9945 498 1 1.225498 -6.110707 9.456664
9946 498 1 2.195498 -6.034832 9.489952
9947 498 1 3.165498 -6.080414 9.475407
9948 498 1 4.135498 -6.122994 9.421083
9949 498 1 5.105498 -6.031834 9.401632
9950 498 1 6.075498 -5.973054 9.538572
9951 498 1 7.045498 -6.050613 9.538605
9952 498 1 8.015498 -6.044211 9.425387
9953 498 1 8.985498 -6.015114 9.404249
9954 498 1 9.955498 -6.098072 9.380479
9955 498 1 10.925498 -6.070531 9.504757
9956 498 1 11.895498 -6.086368 9.528791
9957 498 1 12.865498 -6.127826 9.518913
9958 498 1 13.835498 -6.034150 9.450775
9959 498 1 14.805498 -6.021490 9.382920
9960 498 1 15.775498 -6.026394 9.503885
9961 499 1 6.575854 0.379820 -6.332554
9962 499 1 7.545854 0.433472 -6.440690
9963 499 1 8.515854 0.444921 -6.477159
9964 499 1 9.485854 0.355531 -6.496756
9965 499 1 10.455854 0.373190 -6.416842
9966 499 1 11.425854 0.372260 -6.359430
9967 499 1 12.395854 0.334074 -6.331373
9968 499 1 13.365854 0.434945 -6.431111
9969 499 1 14.335854 0.340950 -6.355431
9970 499 1 15.305854 0.315156 -6.340543
9971 499 1 16.275854 0.409625 -6.437743
9972 499 1 17.245854 0.365044 -6.331235
9973 499 1 18.215854 0.363448 -6.316155
9974 499 1 19.185854 0.499858 -6.321668
9975 499 1 20.155854 0.368523 -6.455033
9976 499 1 21.125854 0.396390 -6.411227
9977 499 1 22.095854 0.491319 -6.451880
9978 499 1 23.065854 0.394728 -6.449632
9979 499 1 24.035854 0.365998 -6.336551
9980 499 1 25.005854 0.370886 -6.318108
9981 500 1 9.582720 9.766177 -4.356872
9982 500 1 10.552720 9.661258 -4.307432
9983 500 1 11.522720 9.786921 -4.488933
9984 500 1 12.492720 9.740669 -4.428744
9985 500 1 13.462720 9.774905 -4.467579
9986 500 1 14.432720 9.642768 -4.416380
9987 500 1 15.402720 9.690768 -4.469881
9988 500 1 16.372720 9.746736 -4.407920
9989 500 1 17.342720 9.605040 -4.468264
9990 500 1 18.312720 9.665023 -4.354991
9991 500 1 19.282720 9.761968 -4.463135
9992 500 1 20.252720 9.776516 -4.487295
9993 500 1 21.222720 9.780995 -4.445866
9994 500 1 22.192720 9.603684 -4.431112
9995 500 1 23.162720 9.737495 -4.452450
9996 500 1 24.132720 9.609067 -4.360141
9997 500 1 25.102720 9.636688 -4.453947
9998 500 1 26.072720 9.599841 -4.493719
9999 500 1 27.042720 9.746931 -4.322329
10000 500 1 28.012720 9.727968 -4.407671

Bonds

1 1 1 2
2 1 2 3
3 1 3 4
4 1 4 5
5 1 5 6
6 1 6 7
7 1 7 8
8 1 8 9
9 1 9 10
10 1 10 11
11 1 11 12
12 1 12 13
13 1 13 14
14 1 14 15
15 1 15 16
16 1 16 17
17 1 17 18
18 1 18 19
19 1 19 20
20 1 21 22
21 1 22 23
22 1 23 24
23 1 24 25
24 1 25 26
25 1 26 27
26 1 27 28
27 1 28 29
28 1 29 30
29 1 30 31
30 1 31 32
31 1 32 33
32 1 33 34
33 1 34 35
34 1 35 36
35 1 36 37
36 1 37 38
37 1 38 39
38 1 39 40
39 1 41 42
40 1 42 43
41 1 43 44
42 1 44 45
43 1 45 46
44 1 46 47
45 1 47 48
46 1 48 49
47 1 49 50
48 1 50 51
49 1 51 52
50 1 52 53
51 1 53 54
52 1 54 55
53 1 55 56
54 1 56 57
55 1 57 58
56 1 58 59
57 1 59 60
58 1 61 62
59 1 62 63
60 1 63 64
61 1 64 65
62 1 65 66
63 1 66 67
64 1 67 68
65 1 68 69
66 1 69 70
67 1 70 71
68 1 71 72
69 1 72 73
70 1 73 74
71 1 74 75
72 1 75 76
73 1 76 77
74 1 77 78
75 1 78 79
76 1 79 80
77 1 81 82
78 1 82 83
79 1 83 84
80 1 84 85
81 1 85 86
82 1 86 87
83 1 87 88
84 1 88 89
85 1 89 90
86 1 90 91
87 1 91 92
88 1 92 93
89 1 93 94
90 1 94 95
91 1 95 96
92 1 96 97
93 1 97 98
94 1 98 99
95 1 99 100
96 1 101 102
97 1 102 103
98 1 103 104
99 1 104 105
100 1 105 106
101 1 106 107
102 1 107 108
103 1 108 109
104 1 109 110
105 1 110 111
106 1 111 112
107 1 112 113
108 1 113 114
109 1 114 115
110 1 115 116
111 1 116 117
112 1 117 118
113 1 118 119
114 1 119 120
115 1 121 122
116 1 122 123
117 1 123 124
118 1 124 125
119 1 125 126
120 1 126 127
121 1 127 128
122 1 128 129
123 1 129 130
124 1 130 131
125 1 131 132
126 1 132 133
127 1 133 134
128 1 134 135
129 1 135 136
130 1 136 137
131 1 137 138
132 1 138 139
133 1 139 140
134 1 141 142
135 1 142 143
136 1 143 144
137 1 144 145
138 1 145 146
139 1 146 147
140 1 147 148
141 1 148 149
142 1 149 150
143 1 150 151
144 1 151 152
145 1 152 153
146 1 153 154
147 1 154 155
148 1 155 156
149 1 156 157
150 1 157 158
151 1 158 159
152 1 159 160
153 1 161 162
154 1 162 163
155 1 163 164
156 1 164 165
157 1 165 166
158 1 166 167
159 1 167 168
160 1 168 169
161 1 169 170
162 1 170 171
163 1 171 172
164 1 172 173
165 1 173 174
166 1 174 175
167 1 175 176
168 1 176 177
169 1 177 178
170 1 178 179
171 1 179 180
172 1 181 182
173 1 182 183
174 1 183 184
175 1 184 185
176 1 185 186
177 1 186 187
178 1 187 188
179 1 188 189
180 1 189 190
181 1 190 191
182 1 191 192
183 1 192 193
184 1 193 194
185 1 194 195
186 1 195 196
187 1 196 197
188 1 197 198
189 1 198 199
190 1 199 200
191 1 201 202
192 1 202 203
193 1 203 204
194 1 204 205
195 1 205 206
196 1 206 207
197 1 207 208
198 1 208 209
199 1 209 210
200 1 210 211
201 1 211 212
202 1 212 213
203 1 213 214
204 1 214 215
205 1 215 216
206 1 216 217
207 1 217 218
208 1 218 219
209 1 219 220
210 1 221 222
211 1 222 223
212 1 223 224
213 1 224 225
214 1 225 226
215 1 226 227
216 1 227 228
217 1 228 229
218 1 229 230
219 1 230 231
220 1 231 232
221 1 232 233
222 1 233 234
223 1 234 235
224 1 235 236
225 1 236 237
226 1 237 238
227 1 238 239
228 1 239 240
229 1 241 242
230 1 242 243
231 1 243 244
232 1 244 245
233 1 245 246
234 1 246 247
235 1 247 248
236 1 248 249
237 1 249 250
238 1 250 251
239 1 251 252
240 1 252 253
241 1 253 254
242 1 254 255
243 1 255 256
244 1 256 257
245 1 257 258
246 1 258 259
247 1 259 260
248 1 261 262
249 1 262 263
250 1 263 264
251 1 264 265
252 1 265 266
253 1 266 267
254 1 267 268
255 1 268 269
256 1 269 270
257 1 270 271
258 1 271 272
259 1 272 273
260 1 273 274
261 1 274 275
262 1 275 276
263 1 276 277
264 1 277 278
265 1 278 279
266 1 279 280
267 1 281 282
268 1 282 283
269 1 283 284
270 1 284 285
271 1 285 286
272 1 286 287
273 1 287 288
274 1 288 289
275 1 289 290
276 1 290 291
277 1 291 292
278 1 292 293
279 1 293 294
280 1 294 295
281 1 295 296
282 1 296 297
283 1 297 298
284 1 298 299
285 1 299 300
286 1 301 302
287 1 302 303
288 1 303 304
289 1 304 305
290 1 305 306
291 1 306 307
292 1 307 308
293 1 308 309
294 1 309 310
295 1 310 311
296 1 311 312
297 1 312 313
298 1 313 314
299 1 314 315
300 1 315 316
301 1 316 317
302 1 317 318
303 1 318 319
304 1 319 320
305 1 321 322
306 1 322 323
307 1 323 324
308 1 324 325
309 1 325 326
310 1 326 327
311 1 327 328
312 1 328 329
313 1 329 330
314 1 330 331
315 1 331 332
316 1 332 333
317 1 333 334
318 1 334 335
319 1 335 336
320 1 336 337
321 1 337 338
322 1 338 339
323 1 339 340
324 1 341 342
325 1 342 343
326 1 343 344
327 1 344 345
328 1 345 346
329 1 346 347
330 1 347 348
331 1 348 349
332 1 349 350
333 1 350 351
334 1 351 352
335 1 352 353
336 1 353 354
337 1 354 355
338 1 355 356
339 1 356 357
340 1 357 358
341 1 358 359
342 1 359 360
343 1 361 362
344 1 362 363
345 1 363 364
346 1 364 365
347 1 365 366
348 1 366 367
349 1 367 368
350 1 368 369
351 1 369 370
352 1 370 371
353 1 371 372
354 1 372 373
355 1 373 374
356 1 374 375
357 1 375 376
358 1 376 377
359 1 377 378
360 1 378 379
361 1 379 380
362 1 381 382
363 1 382 383
364 1 383 384
365 1 384 385
366 1 385 386
367 1 386 387
368 1 387 388
369 1 388 389
370 1 389 390
371 1 390 391
372 1 391 392
373 1 392 393
374 1 393 394
375 1 394 395
376 1 395 396
377 1 396 397
378 1 397 398
379 1 398 399
380 1 399 400
381 1 401 402
382 1 402 403
383 1 403 404
384 1 404 405
385 1 405 406
386 1 406 407
387 1 407 408
388 1 408 409
389 1 409 410
390 1 410 411
391 1 411 412
392 1 412 413
393 1 413 414
394 1 414 415
395 1 415 416
396 1 416 417
397 1 417 418
398 1 418 419
399 1 419 420
400 1 421 422
401 1 422 423
402 1 423 424
403 1 424 425
404 1 425 426
405 1 426 427
406 1 427 428
407 1 428 429
408 1 429 430
409 1 430 431
410 1 431 432
411 1 432 433
412 1 433 434
413 1 434 435
414 1 435 436
415 1 436 437
416 1 437 438
417 1 438 439
418 1 439 440
419 1 441 442
420 1 442 443
421 1 443 444
422 1 444 445
423 1 445 446
424 1 446 447
425 1 447 448
426 1 448 449
427 1 449 450
428 1 450 451
429 1 451 452
430 1 452 453
431 1 453 454
432 1 454 455
433 1 455 456
434 1 456 457
435 1 457 458
436 1 458 459
437 1 459 460
438 1 461 462
439 1 462 463
440 1 463 464
441 1 464 465
442 1 465 466
443 1 466 467
444 1 467 468
445 1 468 469
446 1 469 470
447 1 470 471
448 1 471 472
449 1 472 473
450 1 473 474
451 1 474 475
452 1 475 476
453 1 476 477
454 1 477 478
455 1 478 479
456 1 479 480
457 1 481 482
458 1 482 483
459 1 483 484
460 1 484 485
461 1 485 486
462 1 486 487
463 1 487 488
464 1 488 489
465 1 489 490
466 1 490 491
467 1 491 492
468 1 492 493
469 1 493 494
470 1 494 495
471 1 495 496
472 1 496 497
473 1 497 498
474 1 498 499
475 1 499 500
476 1 501 502
477 1 502 503
478 1 503 504
479 1 504 505
480 1 505 506
481 1 506 507
482 1 507 508
483 1 508 509
484 1 509 510
485 1 510 511
486 1 511 512
487 1 512 513
488 1 513 514
489 1 514 515
490 1 515 516
491 1 516 517
492 1 517 518
493 1 518 519
494 1 519 520
495 1 521 522
496 1 522 523
497 1 523 524
498 1 524 525
499 1 525 526
500 1 526 527
501 1 527 528
502 1 528 529
503 1 529 530
504 1 530 531
505 1 531 532
506 1 532 533
507 1 533 534
508 1 534 535
509 1 535 536
510 1 536 537
511 1 537 538
512 1 538 539
513 1 539 540
514 1 541 542
515 1 542 543
516 1 543 544
517 1 544 545
518 1 545 546
519 1 546 547
520 1 547 548
521 1 548 549
522 1 549 550
523 1 550 551
524 1 551 552
525 1 552 553
526 1 553 554
527 1 554 555
528 1 555 556
529 1 556 557
530 1 557 558
531 1 558 559
532 1 559 560
533 1 561 562
534 1 562 563
535 1 563 564
536 1 564 565
537 1 565 566
538 1 566 567
539 1 567 568
540 1 568 569
541 1 569 570
542 1 570 571
543 1 571 572
544 1 572 573
545 1 573 574
546 1 574 575
547 1 575 576
548 1 576 577
549 1 577 578
550 1 578 579
551 1 579 580
552 1 581 582
553 1 582 583
554 1 583 584
555 1 584 585
556 1 585 586
557 1 586 587
558 1 587 588
559 1 588 589
560 1 589 590
561 1 590 591
562 1 591 592
563 1 592 593
564 1 593 594
565 1 594 595
566 1 595 596
567 1 596 597
568 1 597 598
569 1 598 599
570 1 599 600
571 1 601 602
572 1 602 603
573 1 603 604
574 1 604 605
575 1 605 606
576 1 606 607
577 1 607 608
578 1 608 609
579 1 609 610
580 1 610 611
581 1 611 612
582 1 612 613
583 1 613 614
584 1 614 615
585 1 615 616
586 1 616 617
587 1 617 618
588 1 618 619
589 1 619 620
590 1 621 622
591 1 622 623
592 1 623 624
593 1 624 625
594 1 625 626
595 1 626 627
596 1 627 628
597 1 628 629
598 1 629 630
599 1 630 631
600 1 631 632
601 1 632 633
602 1 633 634
603 1 634 635
604 1 635 636
605 1 636 637
606 1 637 638
607 1 638 639
608 1 639 640
609 1 641 642
610 1 642 643
611 1 643 644
612 1 644 645
613 1 645 646
614 1 646 647
615 1 647 648
616 1 648 649
617 1 649 650
618 1 650 651
619 1 651 652
620 1 652 653
621 1 653 654
622 1 654 655
623 1 655 656
624 1 656 657
625 1 657 658
626 1 658 659
627 1 659 660
628 1 661 662
629 1 662 663
630 1 663 664
631 1 664 665
632 1 665 666
633 1 666 667
634 1 667 668
635 1 668 669
636 1 669 670
637 1 670 671
638 1 671 672
639 1 672 673
640 1 673 674
641 1 674 675
642 1 675 676
643 1 676 677
644 1 677 678
645 1 678 679
646 1 679 680
647 1 681 682
648 1 682 683
649 1 683 684
650 1 684 685
651 1 685 686
652 1 686 687
653 1 687 688
654 1 688 689
655 1 689 690
656 1 690 691
657 1 691 692
658 1 692 693
659 1 693 694
660 1 694 695
661 1 695 696
662 1 696 697
663 1 697 698
664 1 698 699
665 1 699 700
666 1 701 702
667 1 702 703
668 1 703 704
669 1 704 705
670 1 705 706
671 1 706 707
672 1 707 708
673 1 708 709
674 1 709 710
675 1 710 711
676 1 711 712
677 1 712 713
678 1 713 714
679 1 714 715
680 1 715 716
681 1 716 717
682 1 717 718
683 1 718 719
684 1 719 720
685 1 721 722
686 1 722 723
687 1 723 724
688 1 724 725
689 1 725 726
690 1 726 727
691 1 727 728
692 1 728 729
693 1 729 730
694 1 730 731
695 1 731 732
696 1 732 733
697 1 733 734
698 1 734 735
699 1 735 736
700 1 736 737
701 1 737 738
702 1 738 739
703 1 739 740
704 1 741 742
705 1 742 743
706 1 743 744
707 1 744 745
708 1 745 746
709 1 746 747
710 1 747 748
711 1 748 749
712 1 749 750
713 1 750 751
714 1 751 752
715 1 752 753
716 1 753 754
717 1 754 755
718 1 755 756
719 1 756 757
720 1 757 758
721 1 758 759
722 1 759 760
723 1 761 762
724 1 762 763
725 1 763 764
726 1 764 765
727 1 765 766
728 1 766 767
729 1 767 768
730 1 768 769
731 1 769 770
732 1 770 771
733 1 771 772
734 1 772 773
735 1 773 774
736 1 774 775
737 1 775 776
738 1 776 777
739 1 777 778
740 1 778 779
741 1 779 780
742 1 781 782
743 1 782 783
744 1 783 784
745 1 784 785
746 1 785 786
747 1 786 787
748 1 787 788
749 1 788 789
750 1 789 790
751 1 790 791
752 1 791 792
753 1 792 793
754 1 793 794
755 1 794 795
756 1 795 796
757 1 796 797
758 1 797 798
759 1 798 799
760 1 799 800
761 1 801 802
762 1 802 803
763 1 803 804
764 1 804 805
765 1 805 806
766 1 806 807
767 1 807 808
768 1 808 809
769 1 809 810
770 1 810 811
771 1 811 812
772 1 812 813
773 1 813 814
774 1 814 815
775 1 815 816
776 1 816 817
777 1 817 818
778 1 818 819
779 1 819 820
780 1 821 822
781 1 822 823
782 1 823 824
783 1 824 825
784 1 825 826
785 1 826 827
786 1 827 828
787 1 828 829
788 1 829 830
789 1 830 831
790 1 831 832
791 1 832 833
792 1 833 834
793 1 834 835
794 1 835 836
795 1 836 837
796 1 837 838
797 1 838 839
798 1 839 840
799 1 841 842
800 1 842 843
801 1 843 844
802 1 844 845
803 1 845 846
804 1 846 847
805 1 847 848
806 1 848 849
807 1 849 850
808 1 850 851
809 1 851 852
810 1 852 853
811 1 853 854
812 1 854 855
813 1 855 856
814 1 856 857
815 1 857 858
816 1 858 859
817 1 859 860
818 1 861 862
819 1 862 863
820 1 863 864
821 1 864 865
822 1 865 866
823 1 866 867
824 1 867 868
825 1 868 869
826 1 869 870
827 1 870 871
828 1 871 872
829 1 872 873
830 1 873 874
831 1 874 875
832 1 875 876
833 1 876 877
834 1 877 878
835 1 878 879
836 1 879 880
837 1 881 882
838 1 882 883
839 1 883 884
840 1 884 885
841 1 885 886
842 1 886 887
843 1 887 888
844 1 888 889
845 1 889 890
846 1 890 891
847 1 891 892
848 1 892 893
849 1 893 894
850 1 894 895
851 1 895 896
852 1 896 897
853 1 897 898
854 1 898 899
855 1 899 900
856 1 901 902
857 1 902 903
858 1 903 904
859 1 904 905
860 1 905 906
861 1 906 907
862 1 907 908
863 1 908 909
864 1 909 910
865 1 910 911
866 1 911 912
867 1 912 913
868 1 913 914
869 1 914 915
870 1 915 916
871 1 916 917
872 1 917 918
873 1 918 919
874 1 919 920
875 1 921 922
876 1 922 923
877 1 923 924
878 1 924 925
879 1 925 926
880 1 926 927
881 1 927 928
882 1 928 929
883 1 929 930
884 1 930 931
885 1 931 932
886 1 932 933
887 1 933 934
888 1 934 935
889 1 935 936
890 1 936 937
891 1 937 938
892 1 938 939
893 1 939 940
894 1 941 942
895 1 942 943
896 1 943 944
897 1 944 945
898 1 945 946
899 1 946 947
900 1 947 948
901 1 948 949
902 1 949 950
903 1 950 951
904 1 951 952
905 1 952 953
906 1 953 954
907 1 954 955
908 1 955 956
909 1 956 957
910 1 957 958
911 1 958 959
912 1 959 960
913 1 961 962
914 1 962 963
915 1 963 964
916 1 964 965
917 1 965 966
918 1 966 967
919 1 967 968
920 1 968 969
921 1 969 970
922 1 970 971
923 1 971 972
924 1 972 973
925 1 973 974
926 1 974 975
927 1 975 976
928 1 976 977
929 1 977 978
930 1 978 979
931 1 979 980
932 1 981 982
933 1 982 983
934 1 983 984
935 1 984 985
936 1 985 986
937 1 986 987
938 1 987 988
939 1 988 989
940 1 989 990
941 1 990 991
942 1 991 992
943 1 992 993
944 1 993 994
945 1 994 995
946 1 995 996
947 1 996 997
948 1 997 998
949 1 998 999
950 1 999 1000
951 1 1001 1002
952 1 1002 1003
953 1 1003 1004
954 1 1004 1005
955 1 1005 1006
956 1 1006 1007
957 1 1007 1008
958 1 1008 1009
959 1 1009 1010
960 1 1010 1011
961 1 1011 1012
962 1 1012 1013
963 1 1013 1014
964 1 1014 1015
965 1 1015 1016
966 1 1016 1017
967 1 1017 1018
968 1 1018 1019
969 1 1019 1020
970 1 1021 1022
971 1 1022 1023
972 1 1023 1024
973 1 1024 1025
974 1 1025 1026
975 1 1026 1027
976 1 1027 1028
977 1 1028 1029
978 1 1029 1030
979 1 1030 1031
980 1 1031 1032
981 1 1032 1033
982 1 1033 1034
983 1 1034 1035
984 1 1035 1036
985 1 1036 1037
986 1 1037 1038
987 1 1038 1039
988 1 1039 1040
989 1 1041 1042
990 1 1042 1043
991 1 1043 1044
992 1 1044 1045
993 1 1045 1046
994 1 1046 1047
995 1 1047 1048
996 1 1048 1049
997 1 1049 1050
998 1 1050 1051
999 1 1051 1052
1000 1 1052 1053
1001 1 1053 1054
1002 1 1054 1055
1003 1 1055 1056
1004 1 1056 1057
1005 1 1057 1058
1006 1 1058 1059
1007 1 1059 1060
1008 1 1061 1062
1009 1 1062 1063
1010 1 1063 1064
1011 1 1064 1065
1012 1 1065 1066
1013 1 1066 1067
1014 1 1067 1068
1015 1 1068 1069
1016 1 1069 1070
1017 1 1070 1071
1018 1 1071 1072
1019 1 1072 1073
1020 1 1073 1074
1021 1 1074 1075
1022 1 1075 1076
1023 1 1076 1077
1024 1 1077 1078
1025 1 1078 1079
1026 1 1079 1080
1027 1 1081 1082
1028 1 1082 1083
1029 1 1083 1084
1030 1 1084 1085
1031 1 1085 1086
1032 1 1086 1087
1033 1 1087 1088
1034 1 1088 1089
1035 1 1089 1090
1036 1 1090 1091
1037 1 1091 1092
1038 1 1092 1093
1039 1 1093 1094
1040 1 1094 1095
1041 1 1095 1096
1042 1 1096 1097
1043 1 1097 1098
1044 1 1098 1099
1045 1 1099 1100
1046 1 1101 1102
1047 1 1102 1103
1048 1 1103 1104
1049 1 1104 1105
1050 1 1105 1106
1051 1 1106 1107
1052 1 1107 1108
1053 1 1108 1109
1054 1 1109 1110
1055 1 1110 1111
1056 1 1111 1112
1057 1 1112 1113
1058 1 1113 1114
1059 1 1114 1115
1060 1 1115 1116
1061 1 1116 1117
1062 1 1117 1118
1063 1 1118 1119
1064 1 1119 1120
1065 1 1121 1122
1066 1 1122 1123
1067 1 1123 1124
1068 1 1124 1125
1069 1 1125 1126
1070 1 1126 1127
1071 1 1127 1128
1072 1 1128 1129
1073 1 1129 1130
1074 1 1130 1131
1075 1 1131 1132
1076 1 1132 1133
1077 1 1133 1134
1078 1 1134 1135
1079 1 1135 1136
1080 1 1136 1137
1081 1 1137 1138
1082 1 1138 1139
1083 1 1139 1140
1084 1 1141 1142
1085 1 1142 1143
1086 1 1143 1144
1087 1 1144 1145
1088 1 1145 1146
1089 1 1146 1147
1090 1 1147 1148
1091 1 1148 1149
1092 1 1149 1150
1093 1 1150 1151
1094 1 1151 1152
1095 1 1152 1153
1096 1 1153 1154
1097 1 1154 1155
1098 1 1155 1156
1099 1 1156 1157
1100 1 1157 1158
1101 1 1158 1159
1102 1 1159 1160
1103 1 1161 1162
1104 1 1162 1163
1105 1 1163 1164
1106 1 1164 1165
1107 1 1165 1166
1108 1 1166 1167
1109 1 1167 1168
1110 1 1168 1169
1111 1 1169 1170
1112 1 1170 1171
1113 1 1171 1172
1114 1 1172 1173
1115 1 1173 1174
1116 1 1174 1175
1117 1 1175 1176
1118 1 1176 1177
1119 1 1177 1178
1120 1 1178 1179
1121 1 1179 1180
1122 1 1181 1182
1123 1 1182 1183
1124 1 1183 1184
1125 1 1184 1185
1126 1 1185 1186
1127 1 1186 1187
1128 1 1187 1188
1129 1 1188 1189
1130 1 1189 1190
1131 1 1190 1191
1132 1 1191 1192
1133 1 1192 1193
1134 1 1193 1194
1135 1 1194 1195
1136 1 1195 1196
1137 1 1196 1197
1138 1 1197 1198
1139 1 1198 1199
1140 1 1199 1200
1141 1 1201 1202
1142 1 1202 1203
1143 1 1203 1204
1144 1 1204 1205
1145 1 1205 1206
1146 1 1206 1207
1147 1 1207 1208
1148 1 1208 1209
1149 1 1209 1210
1150 1 1210 1211
1151 1 1211 1212
1152 1 1212 1213
1153 1 1213 1214
1154 1 1214 1215
1155 1 1215 1216
1156 1 1216 1217
1157 1 1217 1218
1158 1 1218 1219
1159 1 1219 1220
1160 1 1221 1222
1161 1 1222 1223
1162 1 1223 1224
1163 1 1224 1225
1164 1 1225 1226
1165 1 1226 1227
1166 1 1227 1228
1167 1 1228 1229
1168 1 1229 1230
1169 1 1230 1231
1170 1 1231 1232
1171 1 1232 1233
1172 1 1233 1234
1173 1 1234 1235
1174 1 1235 1236
1175 1 1236 1237
1176 1 1237 1238
1177 1 1238 1239
1178 1 1239 1240
1179 1 1241 1242
1180 1 1242 1243
1181 1 1243 1244
1182 1 1244 1245
1183 1 1245 1246
1184 1 1246 1247
1185 1 1247 1248
1186 1 1248 1249
1187 1 1249 1250
1188 1 1250 1251
1189 1 1251 1252
1190 1 1252 1253
1191 1 1253 1254
1192 1 1254 1255
1193 1 1255 1256
1194 1 1256 1257
1195 1 1257 1258
1196 1 1258 1259
1197 1 1259 1260
1198 1 1261 1262
1199 1 1262 1263
1200 1 1263 1264
1201 1 1264 1265
1202 1 1265 1266
1203 1 1266 1267
1204 1 1267 1268
1205 1 1268 1269
1206 1 1269 1270
1207 1 1270 1271
1208 1 1271 1272
1209 1 1272 1273
1210 1 1273 1274
1211 1 1274 1275
1212 1 1275 1276
1213 1 1276 1277
1214 1 1277 1278
1215 1 1278 1279
1216 1 1279 1280
1217 1 1281 1282
1218 1 1282 1283
1219 1 1283 1284
1220 1 1284 1285
1221 1 1285 1286
1222 1 1286 1287
1223 1 1287 1288
1224 1 1288 1289
1225 1 1289 1290
1226 1 1290 1291
1227 1 1291 1292
1228 1 1292 1293
1229 1 1293 1294
1230 1 1294 1295
1231 1 1295 1296
1232 1 1296 1297
1233 1 1297 1298
1234 1 1298 1299
1235 1 1299 1300
1236 1 1301 1302
1237 1 1302 1303
1238 1 1303 1304
1239 1 1304 1305
1240 1 1305 1306
1241 1 1306 1307
1242 1 1307 1308
1243 1 1308 1309
1244 1 1309 1310
1245 1 1310 1311
1246 1 1311 1312
1247 1 1312 1313
1248 1 1313 1314
1249 1 1314 1315
1250 1 1315 1316
1251 1 1316 1317
1252 1 1317 1318
1253 1 1318 1319
1254 1 1319 1320
1255 1 1321 1322
1256 1 1322 1323
1257 1 1323 1324
1258 1 1324 1325
1259 1 1325 1326
1260 1 1326 1327
1261 1 1327 1328
1262 1 1328 1329
1263 1 1329 1330
1264 1 1330 1331
1265 1 1331 1332
1266 1 1332 1333
1267 1 1333 1334
1268 1 1334 1335
1269 1 1335 1336
1270 1 1336 1337
1271 1 1337 1338
1272 1 1338 1339
1273 1 1339 1340
1274 1 1341 1342
1275 1 1342 1343
1276 1 1343 1344
1277 1 1344 1345
1278 1 1345 1346
1279 1 1346 1347
1280 1 1347 1348
1281 1 1348 1349
1282 1 1349 1350
1283 1 1350 1351
1284 1 1351 1352
1285 1 1352 1353
1286 1 1353 1354
1287 1 1354 1355
1288 1 1355 1356
1289 1 1356 1357
1290 1 1357 1358
1291 1 1358 1359
1292 1 1359 1360
1293 1 1361 1362
1294 1 1362 1363
1295 1 1363 1364
1296 1 1364 1365
1297 1 1365 1366
1298 1 1366 1367
1299 1 1367 1368
1300 1 1368 1369
1301 1 1369 1370
1302 1 1370 1371
1303 1 1371 1372
1304 1 1372 1373
1305 1 1373 1374
1306 1 1374 1375
1307 1 1375 1376
1308 1 1376 1377
1309 1 1377 1378
1310 1 1378 1379
1311 1 1379 1380
1312 1 1381 1382
1313 1 1382 1383
1314 1 1383 1384
1315 1 1384 1385
1316 1 1385 1386
1317 1 1386 1387
1318 1 1387 1388
1319 1 1388 1389
1320 1 1389 1390
1321 1 1390 1391
1322 1 1391 1392
1323 1 1392 1393
1324 1 1393 1394
1325 1 1394 1395
1326 1 1395 1396
1327 1 1396 1397
1328 1 1397 1398
1329 1 1398 1399
1330 1 1399 1400
1331 1 1401 1402
1332 1 1402 1403
1333 1 1403 1404
1334 1 1404 1405
1335 1 1405 1406
1336 1 1406 1407
1337 1 1407 1408
1338 1 1408 1409
1339 1 1409 1410
1340 1 1410 1411
1341 1 1411 1412
1342 1 1412 1413
1343 1 1413 1414
1344 1 1414 1415
1345 1 1415 1416
1346 1 1416 1417
1347 1 1417 1418
1348 1 1418 1419
1349 1 1419 1420
1350 1 1421 1422
1351 1 1422 1423
1352 1 1423 1424
1353 1 1424 1425
1354 1 1425 1426
1355 1 1426 1427
1356 1 1427 1428
1357 1 1428 1429
1358 1 1429 1430
1359 1 1430 1431
1360 1 1431 1432
1361 1 1432 1433
1362 1 1433 1434
1363 1 1434 1435
1364 1 1435 1436
1365 1 1436 1437
1366 1 1437 1438
1367 1 1438 1439
1368 1 1439 1440
1369 1 1441 1442
1370 1 1442 1443
1371 1 1443 1444
1372 1 1444 1445
1373 1 1445 1446
1374 1 1446 1447
1375 1 1447 1448
1376 1 1448 1449
1377 1 1449 1450
1378 1 1450 1451
1379 1 1451 1452
1380 1 1452 1453
1381 1 1453 1454
1382 1 1454 1455
1383 1 1455 1456
1384 1 1456 1457
1385 1 1457 1458
1386 1 1458 1459
1387 1 1459 1460
1388 1 1461 1462
1389 1 1462 1463
1390 1 1463 1464
1391 1 1464 1465
1392 1 1465 1466
1393 1 1466 1467
1394 1 1467 1468
1395 1 1468 1469
1396 1 1469 1470
1397 1 1470 1471
1398 1 1471 1472
1399 1 1472 1473
1400 1 1473 1474
1401 1 1474 1475
1402 1 1475 1476
1403 1 1476 1477
1404 1 1477 1478
1405 1 1478 1479
1406 1 1479 1480
1407 1 1481 1482
1408 1 1482 1483
1409 1 1483 1484
1410 1 1484 1485
1411 1 1485 1486
1412 1 1486 1487
1413 1 1487 1488
1414 1 1488 1489
1415 1 1489 1490
1416 1 1490 1491
1417 1 1491 1492
1418 1 1492 1493
1419 1 1493 1494
1420 1 1494 1495
1421 1 1495 1496
1422 1 1496 1497
1423 1 1497 1498
1424 1 1498 1499
1425 1 1499 1500
1426 1 1501 1502
1427 1 1502 1503
1428 1 1503 1504
1429 1 1504 1505
1430 1 1505 1506
1431 1 1506 1507
1432 1 1507 1508
1433 1 1508 1509
1434 1 1509 1510
1435 1 1510 1511
1436 1 1511 1512
1437 1 1512 1513
1438 1 1513 1514
1439 1 1514 1515
1440 1 1515 1516
1441 1 1516 1517
1442 1 1517 1518
1443 1 1518 1519
1444 1 1519 1520
1445 1 1521 1522
1446 1 1522 1523
1447 1 1523 1524
1448 1 1524 1525
1449 1 1525 1526
1450 1 1526 1527
1451 1 1527 1528
1452 1 1528 1529
1453 1 1529 1530
1454 1 1530 1531
1455 1 1531 1532
1456 1 1532 1533
1457 1 1533 1534
1458 1 1534 1535
1459 1 1535 1536
1460 1 1536 1537
1461 1 1537 1538
1462 1 1538 1539
1463 1 1539 1540
1464 1 1541 1542
1465 1 1542 1543
1466 1 1543 1544
1467 1 1544 1545
1468 1 1545 1546
1469 1 1546 1547
1470 1 1547 1548
1471 1 1548 1549
1472 1 1549 1550
1473 1 1550 1551
1474 1 1551 1552
1475 1 1552 1553
1476 1 1553 1554
1477 1 1554 1555
1478 1 1555 1556
1479 1 1556 1557
1480 1 1557 1558
1481 1 1558 1559
1482 1 1559 1560
1483 1 1561 1562
1484 1 1562 1563
1485 1 1563 1564
1486 1 1564 1565
1487 1 1565 1566
1488 1 1566 1567
1489 1 1567 1568
1490 1 1568 1569
1491 1 1569 1570
1492 1 1570 1571
1493 1 1571 1572
1494 1 1572 1573
1495 1 1573 1574
1496 1 1574 1575
1497 1 1575 1576
1498 1 1576 1577
1499 1 1577 1578
1500 1 1578 1579
1501 1 1579 1580
1502 1 1581 1582
1503 1 1582 1583
1504 1 1583 1584
1505 1 1584 1585
1506 1 1585 1586
1507 1 1586 1587
1508 1 1587 1588
1509 1 1588 1589
1510 1 1589 1590
1511 1 1590 1591
1512 1 1591 1592
1513 1 1592 1593
1514 1 1593 1594
1515 1 1594 1595
1516 1 1595 1596
1517 1 1596 1597
1518 1 1597 1598
1519 1 1598 1599
1520 1 1599 1600
1521 1 1601 1602
1522 1 1602 1603
1523 1 1603 1604
1524 1 1604 1605
1525 1 1605 1606
1526 1 1606 1607
1527 1 1607 1608
1528 1 1608 1609
1529 1 1609 1610
1530 1 1610 1611
1531 1 1611 1612
1532 1 1612 1613
1533 1 1613 1614
1534 1 1614 1615
1535 1 1615 1616
1536 1 1616 1617
1537 1 1617 1618
1538 1 1618 1619
1539 1 1619 1620
1540 1 1621 1622
1541 1 1622 1623
1542 1 1623 1624
1543 1 1624 1625
1544 1 1625 1626
1545 1 1626 1627
1546 1 1627 1628
1547 1 1628 1629
1548 1 1629 1630
1549 1 1630 1631
1550 1 1631 1632
1551 1 1632 1633
1552 1 1633 1634
1553 1 1634 1635
1554 1 1635 1636
1555 1 1636 1637
1556 1 1637 1638
1557 1 1638 1639
1558 1 1639 1640
1559 1 1641 1642
1560 1 1642 1643
1561 1 1643 1644
1562 1 1644 1645
1563 1 1645 1646
1564 1 1646 1647
1565 1 1647 1648
1566 1 1648 1649
1567 1 1649 1650
1568 1 1650 1651
1569 1 1651 1652
1570 1 1652 1653
1571 1 1653 1654
1572 1 1654 1655
1573 1 1655 1656
1574 1 1656 1657
1575 1 1657 1658
1576 1 1658 1659
1577 1 1659 1660
1578 1 1661 1662
1579 1 1662 1663
1580 1 1663 1664
1581 1 1664 1665
1582 1 1665 1666
1583 1 1666 1667
1584 1 1667 1668
1585 1 1668 1669
1586 1 1669 1670
1587 1 1670 1671
1588 1 1671 1672
1589 1 1672 1673
1590 1 1673 1674
1591 1 1674 1675
1592 1 1675 1676
1593 1 1676 1677
1594 1 1677 1678
1595 1 1678 1679
1596 1 1679 1680
1597 1 1681 1682
1598 1 1682 1683
1599 1 1683 1684
1600 1 1684 1685
1601 1 1685 1686
1602 1 1686 1687
1603 1 1687 1688
1604 1 1688 1689
1605 1 1689 1690
1606 1 1690 1691
1607 1 1691 1692
1608 1 1692 1693
1609 1 1693 1694
1610 1 1694 1695
1611 1 1695 1696
1612 1 1696 1697
1613 1 1697 1698
1614 1 1698 1699
1615 1 1699 1700
1616 1 1701 1702
1617 1 1702 1703
1618 1 1703 1704
1619 1 1704 1705
1620 1 1705 1706
1621 1 1706 1707
1622 1 1707 1708
1623 1 1708 1709
1624 1 1709 1710
1625 1 1710 1711
1626 1 1711 1712
1627 1 1712 1713
1628 1 1713 1714
1629 1 1714 1715
1630 1 1715 1716
1631 1 1716 1717
1632 1 1717 1718
1633 1 1718 1719
1634 1 1719 1720
1635 1 1721 1722
1636 1 1722 1723
1637 1 1723 1724
1638 1 1724 1725
1639 1 1725 1726
1640 1 1726 1727
1641 1 1727 1728
1642 1 1728 1729
1643 1 1729 1730
1644 1 1730 1731
1645 1 1731 1732
1646 1 1732 1733
1647 1 1733 1734
1648 1 1734 1735
1649 1 1735 1736
1650 1 1736 1737
1651 1 1737 1738
1652 1 1738 1739
1653 1 1739 1740
1654 1 1741 1742
1655 1 1742 1743
1656 1 1743 1744
1657 1 1744 1745
1658 1 1745 1746
1659 1 1746 1747
1660 1 1747 1748
1661 1 1748 1749
1662 1 1749 1750
1663 1 1750 1751
1664 1 1751 1752
1665 1 1752 1753
1666 1 1753 1754
1667 1 1754 1755
1668 1 1755 1756
1669 1 1756 1757
1670 1 1757 1758
1671 1 1758 1759
1672 1 1759 1760
1673 1 1761 1762
1674 1 1762 1763
1675 1 1763 1764
1676 1 1764 1765
1677 1 1765 1766
1678 1 1766 1767
1679 1 1767 1768
1680 1 1768 1769
1681 1 1769 1770
1682 1 1770 1771
1683 1 1771 1772
1684 1 1772 1773
1685 1 1773 1774
1686 1 1774 1775
1687 1 1775 1776
1688 1 1776 1777
1689 1 1777 1778
1690 1 1778 1779
1691 1 1779 1780
1692 1 1781 1782
1693 1 1782 1783
1694 1 1783 1784
1695 1 1784 1785
1696 1 1785 1786
1697 1 1786 1787
1698 1 1787 1788
1699 1 1788 1789
1700 1 1789 1790
1701 1 1790 1791
1702 1 1791 1792
1703 1 1792 1793
1704 1 1793 1794
1705 1 1794 1795
1706 1 1795 1796
1707 1 1796 1797
1708 1 1797 1798
1709 1 1798 1799
1710 1 1799 1800
1711 1 1801 1802
1712 1 1802 1803
1713 1 1803 1804
1714 1 1804 1805
1715 1 1805 1806
1716 1 1806 1807
1717 1 1807 1808
1718 1 1808 1809
1719 1 1809 1810
1720 1 1810 1811
1721 1 1811 1812
1722 1 1812 1813
1723 1 1813 1814
1724 1 1814 1815
1725 1 1815 1816
1726 1 1816 1817
1727 1 1817 1818
1728 1 1818 1819
1729 1 1819 1820
1730 1 1821 1822
1731 1 1822 1823
1732 1 1823 1824
1733 1 1824 1825
1734 1 1825 1826
1735 1 1826 1827
1736 1 1827 1828
1737 1 1828 1829
1738 1 1829 1830
1739 1 1830 1831
1740 1 1831 1832
1741 1 1832 1833
1742 1 1833 1834
1743 1 1834 1835
1744 1 1835 1836
1745 1 1836 1837
1746 1 1837 1838
1747 1 1838 1839
1748 1 1839 1840
1749 1 1841 1842
1750 1 1842 1843
1751 1 1843 1844
1752 1 1844 1845
1753 1 1845 1846
1754 1 1846 1847
1755 1 1847 1848
1756 1 1848 1849
1757 1 1849 1850
1758 1 1850 1851
1759 1 1851 1852
1760 1 1852 1853
1761 1 1853 1854
1762 1 1854 1855
1763 1 1855 1856
1764 1 1856 1857
1765 1 1857 1858
1766 1 1858 1859
1767 1 1859 1860
1768 1 1861 1862
1769 1 1862 1863
1770 1 1863 1864
1771 1 1864 1865
1772 1 1865 1866
1773 1 1866 1867
1774 1 1867 1868
1775 1 1868 1869
1776 1 1869 1870
1777 1 1870 1871
1778 1 1871 1872
1779 1 1872 1873
1780 1 1873 1874
1781 1 1874 1875
1782 1 1875 1876
1783 1 1876 1877
1784 1 1877 1878
1785 1 1878 1879
1786 1 1879 1880
1787 1 1881 1882
1788 1 1882 1883
1789 1 1883 1884
1790 1 1884 1885
1791 1 1885 1886
1792 1 1886 1887
1793 1 1887 1888
1794 1 1888 1889
1795 1 1889 1890
1796 1 1890 1891
1797 1 1891 1892
1798 1 1892 1893
1799 1 1893 1894
1800 1 1894 1895
1801 1 1895 1896
1802 1 1896 1897
1803 1 1897 1898
1804 1 1898 1899
1805 1 1899 1900
1806 1 1901 1902
1807 1 1902 1903
1808 1 1903 1904
1809 1 1904 1905
1810 1 1905 1906
1811 1 1906 1907
1812 1 1907 1908
1813 1 1908 1909
1814 1 1909 1910
1815 1 1910 1911
1816 1 1911 1912
1817 1 1912 1913
1818 1 1913 1914
1819 1 1914 1915
1820 1 1915 1916
1821 1 1916 1917
1822 1 1917 1918
1823 1 1918 1919
1824 1 1919 1920
1825 1 1921 1922
1826 1 1922 1923
1827 1 1923 1924
1828 1 1924 1925
1829 1 1925 1926
1830 1 1926 1927
1831 1 1927 1928
1832 1 1928 1929
1833 1 1929 1930
1834 1 1930 1931
1835 1 1931 1932
1836 1 1932 1933
1837 1 1933 1934
1838 1 1934 1935
1839 1 1935 1936
1840 1 1936 1937
1841 1 1937 1938
1842 1 1938 1939
1843 1 1939 1940
1844 1 1941 1942
1845 1 1942 1943
1846 1 1943 1944
1847 1 1944 1945
1848 1 1945 1946
1849 1 1946 1947
1850 1 1947 1948
1851 1 1948 1949
1852 1 1949 1950
1853 1 1950 1951
1854 1 1951 1952
1855 1 1952 1953
1856 1 1953 1954
1857 1 1954 1955
1858 1 1955 1956
1859 1 1956 1957
1860 1 1957 1958
1861 1 1958 1959
1862 1 1959 1960
1863 1 1961 1962
1864 1 1962 1963
1865 1 1963 1964
1866 1 1964 1965
1867 1 1965 1966
1868 1 1966 1967
1869 1 1967 1968
1870 1 1968 1969
1871 1 1969 1970
1872 1 1970 1971
1873 1 1971 1972
1874 1 1972 1973
1875 1 1973 1974
1876 1 1974 1975
1877 1 1975 1976
1878 1 1976 1977
1879 1 1977 1978
1880 1 1978 1979
1881 1 1979 1980
1882 1 1981 1982
1883 1 1982 1983
1884 1 1983 1984
1885 1 1984 1985
1886 1 1985 1986
1887 1 1986 1987
1888 1 1987 1988
1889 1 1988 1989
1890 1 1989 1990
1891 1 1990 1991
1892 1 1991 1992
1893 1 1992 1993
1894 1 1993 1994
1895 1 1994 1995
1896 1 1995 1996
1897 1 1996 1997
1898 1 1997 1998
1899 1 1998 1999
1900 1 1999 2000
1901 1 2001 2002
1902 1 2002 2003
1903 1 2003 2004
1904 1 2004 2005
1905 1 2005 2006
1906 1 2006 2007
1907 1 2007 2008
1908 1 2008 2009
1909 1 2009 2010
1910 1 2010 2011
1911 1 2011 2012
1912 1 2012 2013
1913 1 2013 2014
1914 1 2014 2015
1915 1 2015 2016
1916 1 2016 2017
1917 1 2017 2018
1918 1 2018 2019
1919 1 2019 2020
1920 1 2021 2022
1921 1 2022 2023
1922 1 2023 2024
1923 1 2024 2025
1924 1 2025 2026
1925 1 2026 2027
1926 1 2027 2028
1927 1 2028 2029
1928 1 2029 2030
1929 1 2030 2031
1930 1 2031 2032
1931 1 2032 2033
1932 1 2033 2034
1933 1 2034 2035
1934 1 2035 2036
1935 1 2036 2037
1936 1 2037 2038
1937 1 2038 2039
1938 1 2039 2040
1939 1 2041 2042
1940 1 2042 2043
1941 1 2043 2044
1942 1 2044 2045
1943 1 2045 2046
1944 1 2046 2047
1945 1 2047 2048
1946 1 2048 2049
1947 1 2049 2050
1948 1 2050 2051
1949 1 2051 2052
1950 1 2052 2053
1951 1 2053 2054
1952 1 2054 2055
1953 1 2055 2056
1954 1 2056 2057
1955 1 2057 2058
1956 1 2058 2059
1957 1 2059 2060
1958 1 2061 2062
1959 1 2062 2063
1960 1 2063 2064
1961 1 2064 2065
1962 1 2065 2066
1963 1 2066 2067
1964 1 2067 2068
1965 1 2068 2069
1966 1 2069 2070
1967 1 2070 2071
1968 1 2071 2072
1969 1 2072 2073
1970 1 2073 2074
1971 1 2074 2075
1972 1 2075 2076
1973 1 2076 2077
1974 1 2077 2078
1975 1 2078 2079
1976 1 2079 2080
1977 1 2081 2082
1978 1 2082 2083
1979 1 2083 2084
1980 1 2084 2085
1981 1 2085 2086
1982 1 2086 2087
1983 1 2087 2088
1984 1 2088 2089
1985 1 2089 2090
1986 1 2090 2091
1987 1 2091 2092
1988 1 2092 2093
1989 1 2093 2094
1990 1 2094 2095
1991 1 2095 2096
1992 1 2096 2097
1993 1 2097 2098
1994 1 2098 2099
1995 1 2099 2100
1996 1 2101 2102
1997 1 2102 2103
1998 1 2103 2104
1999 1 2104 2105
2000 1 2105 2106
2001 1 2106 2107
2002 1 2107 2108
2003 1 2108 2109
2004 1 2109 2110
2005 1 2110 2111
2006 1 2111 2112
2007 1 2112 2113
2008 1 2113 2114
2009 1 2114 2115
2010 1 2115 2116
2011 1 2116 2117
2012 1 2117 2118
2013 1 2118 2119
2014 1 2119 2120
2015 1 2121 2122
2016 1 2122 2123
2017 1 2123 2124
2018 1 2124 2125
2019 1 2125 2126
2020 1 2126 2127
2021 1 2127 2128
2022 1 2128 2129
2023 1 2129 2130
2024 1 2130 2131
2025 1 2131 2132
2026 1 2132 2133
2027 1 2133 2134
2028 1 2134 2135
2029 1 2135 2136
2030 1 2136 2137
2031 1 2137 2138
2032 1 2138 2139
2033 1 2139 2140
2034 1 2141 2142
2035 1 2142 2143
2036 1 2143 2144
2037 1 2144 2145
2038 1 2145 2146
2039 1 2146 2147
2040 1 2147 2148
2041 1 2148 2149
2042 1 2149 2150
2043 1 2150 2151
2044 1 2151 2152
2045 1 2152 2153
2046 1 2153 2154
2047 1 2154 2155
2048 1 2155 2156
2049 1 2156 2157
2050 1 2157 2158
2051 1 2158 2159
2052 1 2159 2160
2053 1 2161 2162
2054 1 2162 2163
2055 1 2163 2164
2056 1 2164 2165
2057 1 2165 2166
2058 1 2166 2167
2059 1 2167 2168
2060 1 2168 2169
2061 1 2169 2170
2062 1 2170 2171
2063 1 2171 2172
2064 1 2172 2173
2065 1 2173 2174
2066 1 2174 2175
2067 1 2175 2176
2068 1 2176 2177
2069 1 2177 2178
2070 1 2178 2179
2071 1 2179 2180
2072 1 2181 2182
2073 1 2182 2183
2074 1 2183 2184
2075 1 2184 2185
2076 1 2185 2186
2077 1 2186 2187
2078 1 2187 2188
2079 1 2188 2189
2080 1 2189 2190
2081 1 2190 2191
2082 1 2191 2192
2083 1 2192 2193
2084 1 2193 2194
2085 1 2194 2195
2086 1 2195 2196
2087 1 2196 2197
2088 1 2197 2198
2089 1 2198 2199
2090 1 2199 2200
2091 1 2201 2202
2092 1 2202 2203
2093 1 2203 2204
2094 1 2204 2205
2095 1 2205 2206
2096 1 2206 2207
2097 1 2207 2208
2098 1 2208 2209
2099 1 2209 2210
2100 1 2210 2211
2101 1 2211 2212
2102 1 2212 2213
2103 1 2213 2214
2104 1 2214 2215
2105 1 2215 2216
2106 1 2216 2217
2107 1 2217 2218
2108 1 2218 2219
2109 1 2219 2220
2110 1 2221 2222
2111 1 2222 2223
2112 1 2223 2224
2113 1 2224 2225
2114 1 2225 2226
2115 1 2226 2227
2116 1 2227 2228
2117 1 2228 2229
2118 1 2229 2230
2119 1 2230 2231
2120 1 2231 2232
2121 1 2232 2233
2122 1 2233 2234
2123 1 2234 2235
2124 1 2235 2236
2125 1 2236 2237
2126 1 2237 2238
2127 1 2238 2239
2128 1 2239 2240
2129 1 2241 2242
2130 1 2242 2243
2131 1 2243 2244
2132 1 2244 2245
2133 1 2245 2246
2134 1 2246 2247
2135 1 2247 2248
2136 1 2248 2249
2137 1 2249 2250
2138 1 2250 2251
2139 1 2251 2252
2140 1 2252 2253
2141 1 2253 2254
2142 1 2254 2255
2143 1 2255 2256
2144 1 2256 2257
2145 1 2257 2258
2146 1 2258 2259
2147 1 2259 2260
2148 1 2261 2262
2149 1 2262 2263
2150 1 2263 2264
2151 1 2264 2265
2152 1 2265 2266
2153 1 2266 2267
2154 1 2267 2268
2155 1 2268 2269
2156 1 2269 2270
2157 1 2270 2271
2158 1 2271 2272
2159 1 2272 2273
2160 1 2273 2274
2161 1 2274 2275
2162 1 2275 2276
2163 1 2276 2277
2164 1 2277 2278
2165 1 2278 2279
2166 1 2279 2280
2167 1 2281 2282
2168 1 2282 2283
2169 1 2283 2284
2170 1 2284 2285
2171 1 2285 2286
2172 1 2286 2287
2173 1 2287 2288
2174 1 2288 2289
2175 1 2289 2290
2176 1 2290 2291
2177 1 2291 2292
2178 1 2292 2293
2179 1 2293 2294
2180 1 2294 2295
2181 1 2295 2296
2182 1 2296 2297
2183 1 2297 2298
2184 1 2298 2299
2185 1 2299 2300
2186 1 2301 2302
2187 1 2302 2303
2188 1 2303 2304
2189 1 2304 2305
2190 1 2305 2306
2191 1 2306 2307
2192 1 2307 2308
2193 1 2308 2309
2194 1 2309 2310
2195 1 2310 2311
2196 1 2311 2312
2197 1 2312 2313
2198 1 2313 2314
2199 1 2314 2315
2200 1 2315 2316
2201 1 2316 2317
2202 1 2317 2318
2203 1 2318 2319
2204 1 2319 2320
2205 1 2321 2322
2206 1 2322 2323
2207 1 2323 2324
2208 1 2324 2325
2209 1 2325 2326
2210 1 2326 2327
2211 1 2327 2328
2212 1 2328 2329
2213 1 2329 2330
2214 1 2330 2331
2215 1 2331 2332
2216 1 2332 2333
2217 1 2333 2334
2218 1 2334 2335
2219 1 2335 2336
2220 1 2336 2337
2221 1 2337 2338
2222 1 2338 2339
2223 1 2339 2340
2224 1 2341 2342
2225 1 2342 2343
2226 1 2343 2344
2227 1 2344 2345
2228 1 2345 2346
2229 1 2346 2347
2230 1 2347 2348
2231 1 2348 2349
2232 1 2349 2350
2233 1 2350 2351
2234 1 2351 2352
2235 1 2352 2353
2236 1 2353 2354
2237 1 2354 2355
2238 1 2355 2356
2239 1 2356 2357
2240 1 2357 2358
2241 1 2358 2359
2242 1 2359 2360
2243 1 2361 2362
2244 1 2362 2363
2245 1 2363 2364
2246 1 2364 2365
2247 1 2365 2366
2248 1 2366 2367
2249 1 2367 2368
2250 1 2368 2369
2251 1 2369 2370
2252 1 2370 2371
2253 1 2371 2372
2254 1 2372 2373
2255 1 2373 2374
2256 1 2374 2375
2257 1 2375 2376
2258 1 2376 2377
2259 1 2377 2378
2260 1 2378 2379
2261 1 2379 2380
2262 1 2381 2382
2263 1 2382 2383
2264 1 2383 2384
2265 1 2384 2385
2266 1 2385 2386
2267 1 2386 2387
2268 1 2387 2388
2269 1 2388 2389
2270 1 2389 2390
2271 1 2390 2391
2272 1 2391 2392
2273 1 2392 2393
2274 1 2393 2394
2275 1 2394 2395
2276 1 2395 2396
2277 1 2396 2397
2278 1 2397 2398
2279 1 2398 2399
2280 1 2399 2400
2281 1 2401 2402
2282 1 2402 2403
2283 1 2403 2404
2284 1 2404 2405
2285 1 2405 2406
2286 1 2406 2407
2287 1 2407 2408
2288 1 2408 2409
2289 1 2409 2410
2290 1 2410 2411
2291 1 2411 2412
2292 1 2412 2413
2293 1 2413 2414
2294 1 2414 2415
2295 1 2415 2416
2296 1 2416 2417
2297 1 2417 2418
2298 1 2418 2419
2299 1 2419 2420
2300 1 2421 2422
2301 1 2422 2423
2302 1 2423 2424
2303 1 2424 2425
2304 1 2425 2426
2305 1 2426 2427
2306 1 2427 2428
2307 1 2428 2429
2308 1 2429 2430
2309 1 2430 2431
2310 1 2431 2432
2311 1 2432 2433
2312 1 2433 2434
2313 1 2434 2435
2314 1 2435 2436
2315 1 2436 2437
2316 1 2437 2438
2317 1 2438 2439
2318 1 2439 2440
2319 1 2441 2442
2320 1 2442 2443
2321 1 2443 2444
2322 1 2444 2445
2323 1 2445 2446
2324 1 2446 2447
2325 1 2447 2448
2326 1 2448 2449
2327 1 2449 2450
2328 1 2450 2451
2329 1 2451 2452
2330 1 2452 2453
2331 1 2453 2454
2332 1 2454 2455
2333 1 2455 2456
2334 1 2456 2457
2335 1 2457 2458
2336 1 2458 2459
2337 1 2459 2460
2338 1 2461 2462
2339 1 2462 2463
2340 1 2463 2464
2341 1 2464 2465
2342 1 2465 2466
2343 1 2466 2467
2344 1 2467 2468
2345 1 2468 2469
2346 1 2469 2470
2347 1 2470 2471
2348 1 2471 2472
2349 1 2472 2473
2350 1 2473 2474
2351 1 2474 2475
2352 1 2475 2476
2353 1 2476 2477
2354 1 2477 2478
2355 1 2478 2479
2356 1 2479 2480
2357 1 2481 2482
2358 1 2482 2483
2359 1 2483 2484
2360 1 2484 2485
2361 1 2485 2486
2362 1 2486 2487
2363 1 2487 2488
2364 1 2488 2489
2365 1 2489 2490
2366 1 2490 2491
2367 1 2491 2492
2368 1 2492 2493
2369 1 2493 2494
2370 1 2494 2495
2371 1 2495 2496
2372 1 2496 2497
2373 1 2497 2498
2374 1 2498 2499
2375 1 2499 2500
2376 1 2501 2502
2377 1 2502 2503
2378 1 2503 2504
2379 1 2504 2505
2380 1 2505 2506
2381 1 2506 2507
2382 1 2507 2508
2383 1 2508 2509
2384 1 2509 2510
2385 1 2510 2511
2386 1 2511 2512
2387 1 2512 2513
2388 1 2513 2514
2389 1 2514 2515
2390 1 2515 2516
2391 1 2516 2517
2392 1 2517 2518
2393 1 2518 2519
2394 1 2519 2520
2395 1 2521 2522
2396 1 2522 2523
2397 1 2523 2524
2398 1 2524 2525
2399 1 2525 2526
2400 1 2526 2527
2401 1 2527 2528
2402 1 2528 2529
2403 1 2529 2530
2404 1 2530 2531
2405 1 2531 2532
2406 1 2532 2533
2407 1 2533 2534
2408 1 2534 2535
2409 1 2535 2536
2410 1 2536 2537
2411 1 2537 2538
2412 1 2538 2539
2413 1 2539 2540
2414 1 2541 2542
2415 1 2542 2543
2416 1 2543 2544
2417 1 2544 2545
2418 1 2545 2546
2419 1 2546 2547
2420 1 2547 2548
2421 1 2548 2549
2422 1 2549 2550
2423 1 2550 2551
2424 1 2551 2552
2425 1 2552 2553
2426 1 2553 2554
2427 1 2554 2555
2428 1 2555 2556
2429 1 2556 2557
2430 1 2557 2558
2431 1 2558 2559
2432 1 2559 2560
2433 1 2561 2562
2434 1 2562 2563
2435 1 2563 2564
2436 1 2564 2565
2437 1 2565 2566
2438 1 2566 2567
2439 1 2567 2568
2440 1 2568 2569
2441 1 2569 2570
2442 1 2570 2571
2443 1 2571 2572
2444 1 2572 2573
2445 1 2573 2574
2446 1 2574 2575
2447 1 2575 2576
2448 1 2576 2577
2449 1 2577 2578
2450 1 2578 2579
2451 1 2579 2580
2452 1 2581 2582
2453 1 2582 2583
2454 1 2583 2584
2455 1 2584 2585
2456 1 2585 2586
2457 1 2586 2587
2458 1 2587 2588
2459 1 2588 2589
2460 1 2589 2590
2461 1 2590 2591
2462 1 2591 2592
2463 1 2592 2593
2464 1 2593 2594
2465 1 2594 2595
2466 1 2595 2596
2467 1 2596 2597
2468 1 2597 2598
2469 1 2598 2599
2470 1 2599 2600
2471 1 2601 2602
2472 1 2602 2603
2473 1 2603 2604
2474 1 2604 2605
2475 1 2605 2606
2476 1 2606 2607
2477 1 2607 2608
2478 1 2608 2609
2479 1 2609 2610
2480 1 2610 2611
2481 1 2611 2612
2482 1 2612 2613
2483 1 2613 2614
2484 1 2614 2615
2485 1 2615 2616
2486 1 2616 2617
2487 1 2617 2618
2488 1 2618 2619
2489 1 2619 2620
2490 1 2621 2622
2491 1 2622 2623
2492 1 2623 2624
2493 1 2624 2625
2494 1 2625 2626
2495 1 2626 2627
2496 1 2627 2628
2497 1 2628 2629
2498 1 2629 2630
2499 1 2630 2631
2500 1 2631 2632
2501 1 2632 2633
2502 1 2633 2634
2503 1 2634 2635
2504 1 2635 2636
2505 1 2636 2637
2506 1 2637 2638
2507 1 2638 2639
2508 1 2639 2640
2509 1 2641 2642
2510 1 2642 2643
2511 1 2643 2644
2512 1 2644 2645
2513 1 2645 2646
2514 1 2646 2647
2515 1 2647 2648
2516 1 2648 2649
2517 1 2649 2650
2518 1 2650 2651
2519 1 2651 2652
2520 1 2652 2653
2521 1 2653 2654
2522 1 2654 2655
2523 1 2655 2656
2524 1 2656 2657
2525 1 2657 2658
2526 1 2658 2659
2527 1 2659 2660
2528 1 2661 2662
2529 1 2662 2663
2530 1 2663 2664
2531 1 2664 2665
2532 1 2665 2666
2533 1 2666 2667
2534 1 2667 2668
2535 1 2668 2669
2536 1 2669 2670
2537 1 2670 2671
2538 1 2671 2672
2539 1 2672 2673
2540 1 2673 2674
2541 1 2674 2675
2542 1 2675 2676
2543 1 2676 2677
2544 1 2677 2678
2545 1 2678 2679
2546 1 2679 2680
2547 1 2681 2682
2548 1 2682 2683
2549 1 2683 2684
2550 1 2684 2685
2551 1 2685 2686
2552 1 2686 2687
2553 1 2687 2688
2554 1 2688 2689
2555 1 2689 2690
2556 1 2690 2691
2557 1 2691 2692
2558 1 2692 2693
2559 1 2693 2694
2560 1 2694 2695
2561 1 2695 2696
2562 1 2696 2697
2563 1 2697 2698
2564 1 2698 2699
2565 1 2699 2700
2566 1 2701 2702
2567 1 2702 2703
2568 1 2703 2704
2569 1 2704 2705
2570 1 2705 2706
2571 1 2706 2707
2572 1 2707 2708
2573 1 2708 2709
2574 1 2709 2710
2575 1 2710 2711
2576 1 2711 2712
2577 1 2712 2713
2578 1 2713 2714
2579 1 2714 2715
2580 1 2715 2716
2581 1 2716 2717
2582 1 2717 2718
2583 1 2718 2719
2584 1 2719 2720
2585 1 2721 2722
2586 1 2722 2723
2587 1 2723 2724
2588 1 2724 2725
2589 1 2725 2726
2590 1 2726 2727
2591 1 2727 2728
2592 1 2728 2729
2593 1 2729 2730
2594 1 2730 2731
2595 1 2731 2732
2596 1 2732 2733
2597 1 2733 2734
2598 1 2734 2735
2599 1 2735 2736
2600 1 2736 2737
2601 1 2737 2738
2602 1 2738 2739
2603 1 2739 2740
2604 1 2741 2742
2605 1 2742 2743
2606 1 2743 2744
2607 1 2744 2745
2608 1 2745 2746
2609 1 2746 2747
2610 1 2747 2748
2611 1 2748 2749
2612 1 2749 2750
2613 1 2750 2751
2614 1 2751 2752
2615 1 2752 2753
2616 1 2753 2754
2617 1 2754 2755
2618 1 2755 2756
2619 1 2756 2757
2620 1 2757 2758
2621 1 2758 2759
2622 1 2759 2760
2623 1 2761 2762
2624 1 2762 2763
2625 1 2763 2764
2626 1 2764 2765
2627 1 2765 2766
2628 1 2766 2767
2629 1 2767 2768
2630 1 2768 2769
2631 1 2769 2770
2632 1 2770 2771
2633 1 2771 2772
2634 1 2772 2773
2635 1 2773 2774
2636 1 2774 2775
2637 1 2775 2776
2638 1 2776 2777
2639 1 2777 2778
2640 1 2778 2779
2641 1 2779 2780
2642 1 2781 2782
2643 1 2782 2783
2644 1 2783 2784
2645 1 2784 2785
2646 1 2785 2786
2647 1 2786 2787
2648 1 2787 2788
2649 1 2788 2789
2650 1 2789 2790
2651 1 2790 2791
2652 1 2791 2792
2653 1 2792 2793
2654 1 2793 2794
2655 1 2794 2795
2656 1 2795 2796
2657 1 2796 2797
2658 1 2797 2798
2659 1 2798 2799
2660 1 2799 2800
2661 1 2801 2802
2662 1 2802 2803
2663 1 2803 2804
2664 1 2804 2805
2665 1 2805 2806
2666 1 2806 2807
2667 1 2807 2808
2668 1 2808 2809
2669 1 2809 2810
2670 1 2810 2811
2671 1 2811 2812
2672 1 2812 2813
2673 1 2813 2814
2674 1 2814 2815
2675 1 2815 2816
2676 1 2816 2817
2677 1 2817 2818
2678 1 2818 2819
2679 1 2819 2820
2680 1 2821 2822
2681 1 2822 2823
2682 1 2823 2824
2683 1 2824 2825
2684 1 2825 2826
2685 1 2826 2827
2686 1 2827 2828
2687 1 2828 2829
2688 1 2829 2830
2689 1 2830 2831
2690 1 2831 2832
2691 1 2832 2833
2692 1 2833 2834
2693 1 2834 2835
2694 1 2835 2836
2695 1 2836 2837
2696 1 2837 2838
2697 1 2838 2839
2698 1 2839 2840
2699 1 2841 2842
2700 1 2842 2843
2701 1 2843 2844
2702 1 2844 2845
2703 1 2845 2846
2704 1 2846 2847
2705 1 2847 2848
2706 1 2848 2849
2707 1 2849 2850
2708 1 2850 2851
2709 1 2851 2852
2710 1 2852 2853
2711 1 2853 2854
2712 1 2854 2855
2713 1 2855 2856
2714 1 2856 2857
2715 1 2857 2858
2716 1 2858 2859
2717 1 2859 2860
2718 1 2861 2862
2719 1 2862 2863
2720 1 2863 2864
2721 1 2864 2865
2722 1 2865 2866
2723 1 2866 2867
2724 1 2867 2868
2725 1 2868 2869
2726 1 2869 2870
2727 1 2870 2871
2728 1 2871 2872
2729 1 2872 2873
2730 1 2873 2874
2731 1 2874 2875
2732 1 2875 2876
2733 1 2876 2877
2734 1 2877 2878
2735 1 2878 2879
2736 1 2879 2880
2737 1 2881 2882
2738 1 2882 2883
2739 1 2883 2884
2740 1 2884 2885
2741 1 2885 2886
2742 1 2886 2887
2743 1 2887 2888
2744 1 2888 2889
2745 1 2889 2890
2746 1 2890 2891
2747 1 2891 2892
2748 1 2892 2893
2749 1 2893 2894
2750 1 2894 2895
2751 1 2895 2896
2752 1 2896 2897
2753 1 2897 2898
2754 1 2898 2899
2755 1 2899 2900
2756 1 2901 2902
2757 1 2902 2903
2758 1 2903 2904
2759 1 2904 2905
2760 1 2905 2906
2761 1 2906 2907
2762 1 2907 2908
2763 1 2908 2909
2764 1 2909 2910
2765 1 2910 2911
2766 1 2911 2912
2767 1 2912 2913
2768 1 2913 2914
2769 1 2914 2915
2770 1 2915 2916
2771 1 2916 2917
2772 1 2917 2918
2773 1 2918 2919
2774 1 2919 2920
2775 1 2921 2922
2776 1 2922 2923
2777 1 2923 2924
2778 1 2924 2925
2779 1 2925 2926
2780 1 2926 2927
2781 1 2927 2928
2782 1 2928 2929
2783 1 2929 2930
2784 1 2930 2931
2785 1 2931 2932
2786 1 2932 2933
2787 1 2933 2934
2788 1 2934 2935
2789 1 2935 2936
2790 1 2936 2937
2791 1 2937 2938
2792 1 2938 2939
2793 1 2939 2940
2794 1 2941 2942
2795 1 2942 2943
2796 1 2943 2944
2797 1 2944 2945
2798 1 2945 2946
2799 1 2946 2947
2800 1 2947 2948
2801 1 2948 2949
2802 1 2949 2950
2803 1 2950 2951
2804 1 2951 2952
2805 1 2952 2953
2806 1 2953 2954
2807 1 2954 2955
2808 1 2955 2956
2809 1 2956 2957
2810 1 2957 2958
2811 1 2958 2959
2812 1 2959 2960
2813 1 2961 2962
2814 1 2962 2963
2815 1 2963 2964
2816 1 2964 2965
2817 1 2965 2966
2818 1 2966 2967
2819 1 2967 2968
2820 1 2968 2969
2821 1 2969 2970
2822 1 2970 2971
2823 1 2971 2972
2824 1 2972 2973
2825 1 2973 2974
2826 1 2974 2975
2827 1 2975 2976
2828 1 2976 2977
2829 1 2977 2978
2830 1 2978 2979
2831 1 2979 2980
2832 1 2981 2982
2833 1 2982 2983
2834 1 2983 2984
2835 1 2984 2985
2836 1 2985 2986
2837 1 2986 2987
2838 1 2987 2988
2839 1 2988 2989
2840 1 2989 2990
2841 1 2990 2991
2842 1 2991 2992
2843 1 2992 2993
2844 1 2993 2994
2845 1 2994 2995
2846 1 2995 2996
2847 1 2996 2997
2848 1 2997 2998
2849 1 2998 2999
2850 1 2999 3000
2851 1 3001 3002
2852 1 3002 3003
2853 1 3003 3004
2854 1 3004 3005
2855 1 3005 3006
2856 1 3006 3007
2857 1 3007 3008
2858 1 3008 3009
2859 1 3009 3010
2860 1 3010 3011
2861 1 3011 3012
2862 1 3012 3013
2863 1 3013 3014
2864 1 3014 3015
2865 1 3015 3016
2866 1 3016 3017
2867 1 3017 3018
2868 1 3018 3019
2869 1 3019 3020
2870 1 3021 3022
2871 1 3022 3023
2872 1 3023 3024
2873 1 3024 3025
2874 1 3025 3026
2875 1 3026 3027
2876 1 3027 3028
2877 1 3028 3029
2878 1 3029 3030
2879 1 3030 3031
2880 1 3031 3032
2881 1 3032 3033
2882 1 3033 3034
2883 1 3034 3035
2884 1 3035 3036
2885 1 3036 3037
2886 1 3037 3038
2887 1 3038 3039
2888 1 3039 3040
2889 1 3041 3042
2890 1 3042 3043
2891 1 3043 3044
2892 1 3044 3045
2893 1 3045 3046
2894 1 3046 3047
2895 1 3047 3048
2896 1 3048 3049
2897 1 3049 3050
2898 1 3050 3051
2899 1 3051 3052
2900 1 3052 3053
2901 1 3053 3054
2902 1 3054 3055
2903 1 3055 3056
2904 1 3056 3057
2905 1 3057 3058
2906 1 3058 3059
2907 1 3059 3060
2908 1 3061 3062
2909 1 3062 3063
2910 1 3063 3064
2911 1 3064 3065
2912 1 3065 3066
2913 1 3066 3067
2914 1 3067 3068
2915 1 3068 3069
2916 1 3069 3070
2917 1 3070 3071
2918 1 3071 3072
2919 1 3072 3073
2920 1 3073 3074
2921 1 3074 3075
2922 1 3075 3076
2923 1 3076 3077
2924 1 3077 3078
2925 1 3078 3079
2926 1 3079 3080
2927 1 3081 3082
2928 1 3082 3083
2929 1 3083 3084
2930 1 3084 3085
2931 1 3085 3086
2932 1 3086 3087
2933 1 3087 3088
2934 1 3088 3089
2935 1 3089 3090
2936 1 3090 3091
2937 1 3091 3092
2938 1 3092 3093
2939 1 3093 3094
2940 1 3094 3095
2941 1 3095 3096
2942 1 3096 3097
2943 1 3097 3098
2944 1 3098 3099
2945 1 3099 3100
2946 1 3101 3102
2947 1 3102 3103
2948 1 3103 3104
2949 1 3104 3105
2950 1 3105 3106
2951 1 3106 3107
2952 1 3107 3108
2953 1 3108 3109
2954 1 3109 3110
2955 1 3110 3111
2956 1 3111 3112
2957 1 3112 3113
2958 1 3113 3114
2959 1 3114 3115
2960 1 3115 3116
2961 1 3116 3117
2962 1 3117 3118
2963 1 3118 3119
2964 1 3119 3120
2965 1 3121 3122
2966 1 3122 3123
2967 1 3123 3124
2968 1 3124 3125
2969 1 3125 3126
2970 1 3126 3127
2971 1 3127 3128
2972 1 3128 3129
2973 1 3129 3130
2974 1 3130 3131
2975 1 3131 3132
2976 1 3132 3133
2977 1 3133 3134
2978 1 3134 3135
2979 1 3135 3136
2980 1 3136 3137
2981 1 3137 3138
2982 1 3138 3139
2983 1 3139 3140
2984 1 3141 3142
2985 1 3142 3143
2986 1 3143 3144
2987 1 3144 3145
2988 1 3145 3146
2989 1 3146 3147
2990 1 3147 3148
2991 1 3148 3149
2992 1 3149 3150
2993 1 3150 3151
2994 1 3151 3152
2995 1 3152 3153
2996 1 3153 3154
2997 1 3154 3155
2998 1 3155 3156
2999 1 3156 3157
3000 1 3157 3158
3001 1 3158 3159
3002 1 3159 3160
3003 1 3161 3162
3004 1 3162 3163
3005 1 3163 3164
3006 1 3164 3165
3007 1 3165 3166
3008 1 3166 3167
3009 1 3167 3168
3010 1 3168 3169
3011 1 3169 3170
3012 1 3170 3171
3013 1 3171 3172
3014 1 3172 3173
3015 1 3173 3174
3016 1 3174 3175
3017 1 3175 3176
3018 1 3176 3177
3019 1 3177 3178
3020 1 3178 3179
3021 1 3179 3180
3022 1 3181 3182
3023 1 3182 3183
3024 1 3183 3184
3025 1 3184 3185
3026 1 3185 3186
3027 1 3186 3187
3028 1 3187 3188
3029 1 3188 3189
3030 1 3189 3190
3031 1 3190 3191
3032 1 3191 3192
3033 1 3192 3193
3034 1 3193 3194
3035 1 3194 3195
3036 1 3195 3196
3037 1 3196 3197
3038 1 3197 3198
3039 1 3198 3199
3040 1 3199 3200
3041 1 3201 3202
3042 1 3202 3203
3043 1 3203 3204
3044 1 3204 3205
3045 1 3205 3206
3046 1 3206 3207
3047 1 3207 3208
3048 1 3208 3209
3049 1 3209 3210
3050 1 3210 3211
3051 1 3211 3212
3052 1 3212 3213
3053 1 3213 3214
3054 1 3214 3215
3055 1 3215 3216
3056 1 3216 3217
3057 1 3217 3218
3058 1 3218 3219
3059 1 3219 3220
3060 1 3221 3222
3061 1 3222 3223
3062 1 3223 3224
3063 1 3224 3225
3064 1 3225 3226
3065 1 3226 3227
3066 1 3227 3228
3067 1 3228 3229
3068 1 3229 3230
3069 1 3230 3231
3070 1 3231 3232
3071 1 3232 3233
3072 1 3233 3234
3073 1 3234 3235
3074 1 3235 3236
3075 1 3236 3237
3076 1 3237 3238
3077 1 3238 3239
3078 1 3239 3240
3079 1 3241 3242
3080 1 3242 3243
3081 1 3243 3244
3082 1 3244 3245
3083 1 3245 3246
3084 1 3246 3247
3085 1 3247 3248
3086 1 3248 3249
3087 1 3249 3250
3088 1 3250 3251
3089 1 3251 3252
3090 1 3252 3253
3091 1 3253 3254
3092 1 3254 3255
3093 1 3255 3256
3094 1 3256 3257
3095 1 3257 3258
3096 1 3258 3259
3097 1 3259 3260
3098 1 3261 3262
3099 1 3262 3263
3100 1 3263 3264
3101 1 3264 3265
3102 1 3265 3266
3103 1 3266 3267
3104 1 3267 3268
3105 1 3268 3269
3106 1 3269 3270
3107 1 3270 3271
3108 1 3271 3272
3109 1 3272 3273
3110 1 3273 3274
3111 1 3274 3275
3112 1 3275 3276
3113 1 3276 3277
3114 1 3277 3278
3115 1 3278 3279
3116 1 3279 3280
3117 1 3281 3282
3118 1 3282 3283
3119 1 3283 3284
3120 1 3284 3285
3121 1 3285 3286
3122 1 3286 3287
3123 1 3287 3288
3124 1 3288 3289
3125 1 3289 3290
3126 1 3290 3291
3127 1 3291 3292
3128 1 3292 3293
3129 1 3293 3294
3130 1 3294 3295
3131 1 3295 3296
3132 1 3296 3297
3133 1 3297 3298
3134 1 3298 3299
3135 1 3299 3300
3136 1 3301 3302
3137 1 3302 3303
3138 1 3303 3304
3139 1 3304 3305
3140 1 3305 3306
3141 1 3306 3307
3142 1 3307 3308
3143 1 3308 3309
3144 1 3309 3310
3145 1 3310 3311
3146 1 3311 3312
3147 1 3312 3313
3148 1 3313 3314
3149 1 3314 3315
3150 1 3315 3316
3151 1 3316 3317
3152 1 3317 3318
3153 1 3318 3319
3154 1 3319 3320
3155 1 3321 3322
3156 1 3322 3323
3157 1 3323 3324
3158 1 3324 3325
3159 1 3325 3326
3160 1 3326 3327
3161 1 3327 3328
3162 1 3328 3329
3163 1 3329 3330
3164 1 3330 3331
3165 1 3331 3332
3166 1 3332 3333
3167 1 3333 3334
3168 1 3334 3335
3169 1 3335 3336
3170 1 3336 3337
3171 1 3337 3338
3172 1 3338 3339
3173 1 3339 3340
3174 1 3341 3342
3175 1 3342 3343
3176 1 3343 3344
3177 1 3344 3345
3178 1 3345 3346
3179 1 3346 3347
3180 1 3347 3348
3181 1 3348 3349
3182 1 3349 3350
3183 1 3350 3351
3184 1 3351 3352
3185 1 3352 3353
3186 1 3353 3354
3187 1 3354 3355
3188 1 3355 3356
3189 1 3356 3357
3190 1 3357 3358
3191 1 3358 3359
3192 1 3359 3360
3193 1 3361 3362
3194 1 3362 3363
3195 1 3363 3364
3196 1 3364 3365
3197 1 3365 3366
3198 1 3366 3367
3199 1 3367 3368
3200 1 3368 3369
3201 1 3369 3370
3202 1 3370 3371
3203 1 3371 3372
3204 1 3372 3373
3205 1 3373 3374
3206 1 3374 3375
3207 1 3375 3376
3208 1 3376 3377
3209 1 3377 3378
3210 1 3378 3379
3211 1 3379 3380
3212 1 3381 3382
3213 1 3382 3383
3214 1 3383 3384
3215 1 3384 3385
3216 1 3385 3386
3217 1 3386 3387
3218 1 3387 3388
3219 1 3388 3389
3220 1 3389 3390
3221 1 3390 3391
3222 1 3391 3392
3223 1 3392 3393
3224 1 3393 3394
3225 1 3394 3395
3226 1 3395 3396
3227 1 3396 3397
3228 1 3397 3398
3229 1 3398 3399
3230 1 3399 3400
3231 1 3401 3402
3232 1 3402 3403
3233 1 3403 3404
3234 1 3404 3405
3235 1 3405 3406
3236 1 3406 3407
3237 1 3407 3408
3238 1 3408 3409
3239 1 3409 3410
3240 1 3410 3411
3241 1 3411 3412
3242 1 3412 3413
3243 1 3413 3414
3244 1 3414 3415
3245 1 3415 3416
3246 1 3416 3417
3247 1 3417 3418
3248 1 3418 3419
3249 1 3419 3420
3250 1 3421 3422
3251 1 3422 3423
3252 1 3423 3424
3253 1 3424 3425
3254 1 3425 3426
3255 1 3426 3427
3256 1 3427 3428
3257 1 3428 3429
3258 1 3429 3430
3259 1 3430 3431
3260 1 3431 3432
3261 1 3432 3433
3262 1 3433 3434
3263 1 3434 3435
3264 1 3435 3436
3265 1 3436 3437
3266 1 3437 3438
3267 1 3438 3439
3268 1 3439 3440
3269 1 3441 3442
3270 1 3442 3443
3271 1 3443 3444
3272 1 3444 3445
3273 1 3445 3446
3274 1 3446 3447
3275 1 3447 3448
3276 1 3448 3449
3277 1 3449 3450
3278 1 3450 3451
3279 1 3451 3452
3280 1 3452 3453
3281 1 3453 3454
3282 1 3454 3455
3283 1 3455 3456
3284 1 3456 3457
3285 1 3457 3458
3286 1 3458 3459
3287 1 3459 3460
3288 1 3461 3462
3289 1 3462 3463
3290 1 3463 3464
3291 1 3464 3465
3292 1 3465 3466
3293 1 3466 3467
3294 1 3467 3468
3295 1 3468 3469
3296 1 3469 3470
3297 1 3470 3471
3298 1 3471 3472
3299 1 3472 3473
3300 1 3473 3474
3301 1 3474 3475
3302 1 3475 3476
3303 1 3476 3477
3304 1 3477 3478
3305 1 3478 3479
3306 1 3479 3480
3307 1 3481 3482
3308 1 3482 3483
3309 1 3483 3484
3310 1 3484 3485
3311 1 3485 3486
3312 1 3486 3487
3313 1 3487 3488
3314 1 3488 3489
3315 1 3489 3490
3316 1 3490 3491
3317 1 3491 3492
3318 1 3492 3493
3319 1 3493 3494
3320 1 3494 3495
3321 1 3495 3496
3322 1 3496 3497
3323 1 3497 3498
3324 1 3498 3499
3325 1 3499 3500
3326 1 3501 3502
3327 1 3502 3503
3328 1 3503 3504
3329 1 3504 3505
3330 1 3505 3506
3331 1 3506 3507
3332 1 3507 3508
3333 1 3508 3509
3334 1 3509 3510
3335 1 3510 3511
3336 1 3511 3512
3337 1 3512 3513
3338 1 3513 3514
3339 1 3514 3515
3340 1 3515 3516
3341 1 3516 3517
3342 1 3517 3518
3343 1 3518 3519
3344 1 3519 3520
3345 1 3521 3522
3346 1 3522 3523
3347 1 3523 3524
3348 1 3524 3525
3349 1 3525 3526
3350 1 3526 3527
3351 1 3527 3528
3352 1 3528 3529
3353 1 3529 3530
3354 1 3530 3531
3355 1 3531 3532
3356 1 3532 3533
3357 1 3533 3534
3358 1 3534 3535
3359 1 3535 3536
3360 1 3536 3537
3361 1 3537 3538
3362 1 3538 3539
3363 1 3539 3540
3364 1 3541 3542
3365 1 3542 3543
3366 1 3543 3544
3367 1 3544 3545
3368 1 3545 3546
3369 1 3546 3547
3370 1 3547 3548
3371 1 3548 3549
3372 1 3549 3550
3373 1 3550 3551
3374 1 3551 3552
3375 1 3552 3553
3376 1 3553 3554
3377 1 3554 3555
3378 1 3555 3556
3379 1 3556 3557
3380 1 3557 3558
3381 1 3558 3559
3382 1 3559 3560
3383 1 3561 3562
3384 1 3562 3563
3385 1 3563 3564
3386 1 3564 3565
3387 1 3565 3566
3388 1 3566 3567
3389 1 3567 3568
3390 1 3568 3569
3391 1 3569 3570
3392 1 3570 3571
3393 1 3571 3572
3394 1 3572 3573
3395 1 3573 3574
3396 1 3574 3575
3397 1 3575 3576
3398 1 3576 3577
3399 1 3577 3578
3400 1 3578 3579
3401 1 3579 3580
3402 1 3581 3582
3403 1 3582 3583
3404 1 3583 3584
3405 1 3584 3585
3406 1 3585 3586
3407 1 3586 3587
3408 1 3587 3588
3409 1 3588 3589
3410 1 3589 3590
3411 1 3590 3591
3412 1 3591 3592
3413 1 3592 3593
3414 1 3593 3594
3415 1 3594 3595
3416 1 3595 3596
3417 1 3596 3597
3418 1 3597 3598
3419 1 3598 3599
3420 1 3599 3600
3421 1 3601 3602
3422 1 3602 3603
3423 1 3603 3604
3424 1 3604 3605
3425 1 3605 3606
3426 1 3606 3607
3427 1 3607 3608
3428 1 3608 3609
3429 1 3609 3610
3430 1 3610 3611
3431 1 3611 3612
3432 1 3612 3613
3433 1 3613 3614
3434 1 3614 3615
3435 1 3615 3616
3436 1 3616 3617
3437 1 3617 3618
3438 1 3618 3619
3439 1 3619 3620
3440 1 3621 3622
3441 1 3622 3623
3442 1 3623 3624
3443 1 3624 3625
3444 1 3625 3626
3445 1 3626 3627
3446 1 3627 3628
3447 1 3628 3629
3448 1 3629 3630
3449 1 3630 3631
3450 1 3631 3632
3451 1 3632 3633
3452 1 3633 3634
3453 1 3634 3635
3454 1 3635 3636
3455 1 3636 3637
3456 1 3637 3638
3457 1 3638 3639
3458 1 3639 3640
3459 1 3641 3642
3460 1 3642 3643
3461 1 3643 3644
3462 1 3644 3645
3463 1 3645 3646
3464 1 3646 3647
3465 1 3647 3648
3466 1 3648 3649
3467 1 3649 3650
3468 1 3650 3651
3469 1 3651 3652
3470 1 3652 3653
3471 1 3653 3654
3472 1 3654 3655
3473 1 3655 3656
3474 1 3656 3657
3475 1 3657 3658
3476 1 3658 3659
3477 1 3659 3660
3478 1 3661 3662
3479 1 3662 3663
3480 1 3663 3664
3481 1 3664 3665
3482 1 3665 3666
3483 1 3666 3667
3484 1 3667 3668
3485 1 3668 3669
3486 1 3669 3670
3487 1 3670 3671
3488 1 3671 3672
3489 1 3672 3673
3490 1 3673 3674
3491 1 3674 3675
3492 1 3675 3676
3493 1 3676 3677
3494 1 3677 3678
3495 1 3678 3679
3496 1 3679 3680
3497 1 3681 3682
3498 1 3682 3683
3499 1 3683 3684
3500 1 3684 3685
3501 1 3685 3686
3502 1 3686 3687
3503 1 3687 3688
3504 1 3688 3689
3505 1 3689 3690
3506 1 3690 3691
3507 1 3691 3692
3508 1 3692 3693
3509 1 3693 3694
3510 1 3694 3695
3511 1 3695 3696
3512 1 3696 3697
3513 1 3697 3698
3514 1 3698 3699
3515 1 3699 3700
3516 1 3701 3702
3517 1 3702 3703
3518 1 3703 3704
3519 1 3704 3705
3520 1 3705 3706
3521 1 3706 3707
3522 1 3707 3708
3523 1 3708 3709
3524 1 3709 3710
3525 1 3710 3711
3526 1 3711 3712
3527 1 3712 3713
3528 1 3713 3714
3529 1 3714 3715
3530 1 3715 3716
3531 1 3716 3717
3532 1 3717 3718
3533 1 3718 3719
3534 1 3719 3720
3535 1 3721 3722
3536 1 3722 3723
3537 1 3723 3724
3538 1 3724 3725
3539 1 3725 3726
3540 1 3726 3727
3541 1 3727 3728
3542 1 3728 3729
3543 1 3729 3730
3544 1 3730 3731
3545 1 3731 3732
3546 1 3732 3733
3547 1 3733 3734
3548 1 3734 3735
3549 1 3735 3736
3550 1 3736 3737
3551 1 3737 3738
3552 1 3738 3739
3553 1 3739 3740
3554 1 3741 3742
3555 1 3742 3743
3556 1 3743 3744
3557 1 3744 3745
3558 1 3745 3746
3559 1 3746 3747
3560 1 3747 3748
3561 1 3748 3749
3562 1 3749 3750
3563 1 3750 3751
3564 1 3751 3752
3565 1 3752 3753
3566 1 3753 3754
3567 1 3754 3755
3568 1 3755 3756
3569 1 3756 3757
3570 1 3757 3758
3571 1 3758 3759
3572 1 3759 3760
3573 1 3761 3762
3574 1 3762 3763
3575 1 3763 3764
3576 1 3764 3765
3577 1 3765 3766
3578 1 3766 3767
3579 1 3767 3768
3580 1 3768 3769
3581 1 3769 3770
3582 1 3770 3771
3583 1 3771 3772
3584 1 3772 3773
3585 1 3773 3774
3586 1 3774 3775
3587 1 3775 3776
3588 1 3776 3777
3589 1 3777 3778
3590 1 3778 3779
3591 1 3779 3780
3592 1 3781 3782
3593 1 3782 3783
3594 1 3783 3784
3595 1 3784 3785
3596 1 3785 3786
3597 1 3786 3787
3598 1 3787 3788
3599 1 3788 3789
3600 1 3789 3790
3601 1 3790 3791
3602 1 3791 3792
3603 1 3792 3793
3604 1 3793 3794
3605 1 3794 3795
3606 1 3795 3796
3607 1 3796 3797
3608 1 3797 3798
3609 1 3798 3799
3610 1 3799 3800
3611 1 3801 3802
3612 1 3802 3803
3613 1 3803 3804
3614 1 3804 3805
3615 1 3805 3806
3616 1 3806 3807
3617 1 3807 3808
3618 1 3808 3809
3619 1 3809 3810
3620 1 3810 3811
3621 1 3811 3812
3622 1 3812 3813
3623 1 3813 3814
3624 1 3814 3815
3625 1 3815 3816
3626 1 3816 3817
3627 1 3817 3818
3628 1 3818 3819
3629 1 3819 3820
3630 1 3821 3822
3631 1 3822 3823
3632 1 3823 3824
3633 1 3824 3825
3634 1 3825 3826
3635 1 3826 3827
3636 1 3827 3828
3637 1 3828 3829
3638 1 3829 3830
3639 1 3830 3831
3640 1 3831 3832
3641 1 3832 3833
3642 1 3833 3834
3643 1 3834 3835
3644 1 3835 3836
3645 1 3836 3837
3646 1 3837 3838
3647 1 3838 3839
3648 1 3839 3840
3649 1 3841 3842
3650 1 3842 3843
3651 1 3843 3844
3652 1 3844 3845
3653 1 3845 3846
3654 1 3846 3847
3655 1 3847 3848
3656 1 3848 3849
3657 1 3849 3850
3658 1 3850 3851
3659 1 3851 3852
3660 1 3852 3853
3661 1 3853 3854
3662 1 3854 3855
3663 1 3855 3856
3664 1 3856 3857
3665 1 3857 3858
3666 1 3858 3859
3667 1 3859 3860
3668 1 3861 3862
3669 1 3862 3863
3670 1 3863 3864
3671 1 3864 3865
3672 1 3865 3866
3673 1 3866 3867
3674 1 3867 3868
3675 1 3868 3869
3676 1 3869 3870
3677 1 3870 3871
3678 1 3871 3872
3679 1 3872 3873
3680 1 3873 3874
3681 1 3874 3875
3682 1 3875 3876
3683 1 3876 3877
3684 1 3877 3878
3685 1 3878 3879
3686 1 3879 3880
3687 1 3881 3882
3688 1 3882 3883
3689 1 3883 3884
3690 1 3884 3885
3691 1 3885 3886
3692 1 3886 3887
3693 1 3887 3888
3694 1 3888 3889
3695 1 3889 3890
3696 1 3890 3891
3697 1 3891 3892
3698 1 3892 3893
3699 1 3893 3894
3700 1 3894 3895
3701 1 3895 3896
3702 1 3896 3897
3703 1 3897 3898
3704 1 3898 3899
3705 1 3899 3900
3706 1 3901 3902
3707 1 3902 3903
3708 1 3903 3904
3709 1 3904 3905
3710 1 3905 3906
3711 1 3906 3907
3712 1 3907 3908
3713 1 3908 3909
3714 1 3909 3910
3715 1 3910 3911
3716 1 3911 3912
3717 1 3912 3913
3718 1 3913 3914
3719 1 3914 3915
3720 1 3915 3916
3721 1 3916 3917
3722 1 3917 3918
3723 1 3918 3919
3724 1 3919 3920
3725 1 3921 3922
3726 1 3922 3923
3727 1 3923 3924
3728 1 3924 3925
3729 1 3925 3926
3730 1 3926 3927
3731 1 3927 3928
3732 1 3928 3929
3733 1 3929 3930
3734 1 3930 3931
3735 1 3931 3932
3736 1 3932 3933
3737 1 3933 3934
3738 1 3934 3935
3739 1 3935 3936
3740 1 3936 3937
3741 1 3937 3938
3742 1 3938 3939
3743 1 3939 3940
3744 1 3941 3942
3745 1 3942 3943
3746 1 3943 3944
3747 1 3944 3945
3748 1 3945 3946
3749 1 3946 3947
3750 1 3947 3948
3751 1 3948 3949
3752 1 3949 3950
3753 1 3950 3951
3754 1 3951 3952
3755 1 3952 3953
3756 1 3953 3954
3757 1 3954 3955
3758 1 3955 3956
3759 1 3956 3957
3760 1 3957 3958
3761 1 3958 3959
3762 1 3959 3960
3763 1 3961 3962
3764 1 3962 3963
3765 1 3963 3964
3766 1 3964 3965
3767 1 3965 3966
3768 1 3966 3967
3769 1 3967 3968
3770 1 3968 3969
3771 1 3969 3970
3772 1 3970 3971
3773 1 3971 3972
3774 1 3972 3973
3775 1 3973 3974
3776 1 3974 3975
3777 1 3975 3976
3778 1 3976 3977
3779 1 3977 3978
3780 1 3978 3979
3781 1 3979 3980
3782 1 3981 3982
3783 1 3982 3983
3784 1 3983 3984
3785 1 3984 3985
3786 1 3985 3986
3787 1 3986 3987
3788 1 3987 3988
3789 1 3988 3989
3790 1 3989 3990
3791 1 3990 3991
3792 1 3991 3992
3793 1 3992 3993
3794 1 3993 3994
3795 1 3994 3995
3796 1 3995 3996
3797 1 3996 3997
3798 1 3997 3998
3799 1 3998 3999
3800 1 3999 4000
3801 1 4001 4002
3802 1 4002 4003
3803 1 4003 4004
3804 1 4004 4005
3805 1 4005 4006
3806 1 4006 4007
3807 1 4007 4008
3808 1 4008 4009
3809 1 4009 4010
3810 1 4010 4011
3811 1 4011 4012
3812 1 4012 4013
3813 1 4013 4014
3814 1 4014 4015
3815 1 4015 4016
3816 1 4016 4017
3817 1 4017 4018
3818 1 4018 4019
3819 1 4019 4020
3820 1 4021 4022
3821 1 4022 4023
3822 1 4023 4024
3823 1 4024 4025
3824 1 4025 4026
3825 1 4026 4027
3826 1 4027 4028
3827 1 4028 4029
3828 1 4029 4030
3829 1 4030 4031
3830 1 4031 4032
3831 1 4032 4033
3832 1 4033 4034
3833 1 4034 4035
3834 1 4035 4036
3835 1 4036 4037
3836 1 4037 4038
3837 1 4038 4039
3838 1 4039 4040
3839 1 4041 4042
3840 1 4042 4043
3841 1 4043 4044
3842 1 4044 4045
3843 1 4045 4046
3844 1 4046 4047
3845 1 4047 4048
3846 1 4048 4049
3847 1 4049 4050
3848 1 4050 4051
3849 1 4051 4052
3850 1 4052 4053
3851 1 4053 4054
3852 1 4054 4055
3853 1 4055 4056
3854 1 4056 4057
3855 1 4057 4058
3856 1 4058 4059
3857 1 4059 4060
3858 1 4061 4062
3859 1 4062 4063
3860 1 4063 4064
3861 1 4064 4065
3862 1 4065 4066
3863 1 4066 4067
3864 1 4067 4068
3865 1 4068 4069
3866 1 4069 4070
3867 1 4070 4071
3868 1 4071 4072
3869 1 4072 4073
3870 1 4073 4074
3871 1 4074 4075
3872 1 4075 4076
3873 1 4076 4077
3874 1 4077 4078
3875 1 4078 4079
3876 1 4079 4080
3877 1 4081 4082
3878 1 4082 4083
3879 1 4083 4084
3880 1 4084 4085
3881 1 4085 4086
3882 1 4086 4087
3883 1 4087 4088
3884 1 4088 4089
3885 1 4089 4090
3886 1 4090 4091
3887 1 4091 4092
3888 1 4092 4093
3889 1 4093 4094
3890 1 4094 4095
3891 1 4095 4096
3892 1 4096 4097
3893 1 4097 4098
3894 1 4098 4099
3895 1 4099 4100
3896 1 4101 4102
3897 1 4102 4103
3898 1 4103 4104
3899 1 4104 4105
3900 1 4105 4106
3901 1 4106 4107
3902 1 4107 4108
3903 1 4108 4109
3904 1 4109 4110
3905 1 4110 4111
3906 1 4111 4112
3907 1 4112 4113
3908 1 4113 4114
3909 1 4114 4115
3910 1 4115 4116
3911 1 4116 4117
3912 1 4117 4118
3913 1 4118 4119
3914 1 4119 4120
3915 1 4121 4122
3916 1 4122 4123
3917 1 4123 4124
3918 1 4124 4125
3919 1 4125 4126
3920 1 4126 4127
3921 1 4127 4128
3922 1 4128 4129
3923 1 4129 4130
3924 1 4130 4131
3925 1 4131 4132
3926 1 4132 4133
3927 1 4133 4134
3928 1 4134 4135
3929 1 4135 4136
3930 1 4136 4137
3931 1 4137 4138
3932 1 4138 4139
3933 1 4139 4140
3934 1 4141 4142
3935 1 4142 4143
3936 1 4143 4144
3937 1 4144 4145
3938 1 4145 4146
3939 1 4146 4147
3940 1 4147 4148
3941 1 4148 4149
3942 1 4149 4150
3943 1 4150 4151
3944 1 4151 4152
3945 1 4152 4153
3946 1 4153 4154
3947 1 4154 4155
3948 1 4155 4156
3949 1 4156 4157
3950 1 4157 4158
3951 1 4158 4159
3952 1 4159 4160
3953 1 4161 4162
3954 1 4162 4163
3955 1 4163 4164
3956 1 4164 4165
3957 1 4165 4166
3958 1 4166 4167
3959 1 4167 4168
3960 1 4168 4169
3961 1 4169 4170
3962 1 4170 4171
3963 1 4171 4172
3964 1 4172 4173
3965 1 4173 4174
3966 1 4174 4175
3967 1 4175 4176
3968 1 4176 4177
3969 1 4177 4178
3970 1 4178 4179
3971 1 4179 4180
3972 1 4181 4182
3973 1 4182 4183
3974 1 4183 4184
3975 1 4184 4185
3976 1 4185 4186
3977 1 4186 4187
3978 1 4187 4188
3979 1 4188 4189
3980 1 4189 4190
3981 1 4190 4191
3982 1 4191 4192
3983 1 4192 4193
3984 1 4193 4194
3985 1 4194 4195
3986 1 4195 4196
3987 1 4196 4197
3988 1 4197 4198
3989 1 4198 4199
3990 1 4199 4200
3991 1 4201 4202
3992 1 4202 4203
3993 1 4203 4204
3994 1 4204 4205
3995 1 4205 4206
3996 1 4206 4207
3997 1 4207 4208
3998 1 4208 4209
3999 1 4209 4210
4000 1 4210 4211
4001 1 4211 4212
4002 1 4212 4213
4003 1 4213 4214
4004 1 4214 4215
4005 1 4215 4216
4006 1 4216 4217
4007 1 4217 4218
4008 1 4218 4219
4009 1 4219 4220
4010 1 4221 4222
4011 1 4222 4223
4012 1 4223 4224
4013 1 4224 4225
4014 1 4225 4226
4015 1 4226 4227
4016 1 4227 4228
4017 1 4228 4229
4018 1 4229 4230
4019 1 4230 4231
4020 1 4231 4232
4021 1 4232 4233
4022 1 4233 4234
4023 1 4234 4235
4024 1 4235 4236
4025 1 4236 4237
4026 1 4237 4238
4027 1 4238 4239
4028 1 4239 4240
4029 1 4241 4242
4030 1 4242 4243
4031 1 4243 4244
4032 1 4244 4245
4033 1 4245 4246
4034 1 4246 4247
4035 1 4247 4248
4036 1 4248 4249
4037 1 4249 4250
4038 1 4250 4251
4039 1 4251 4252
4040 1 4252 4253
4041 1 4253 4254
4042 1 4254 4255
4043 1 4255 4256
4044 1 4256 4257
4045 1 4257 4258
4046 1 4258 4259
4047 1 4259 4260
4048 1 4261 4262
4049 1 4262 4263
4050 1 4263 4264
4051 1 4264 4265
4052 1 4265 4266
4053 1 4266 4267
4054 1 4267 4268
4055 1 4268 4269
4056 1 4269 4270
4057 1 4270 4271
4058 1 4271 4272
4059 1 4272 4273
4060 1 4273 4274
4061 1 4274 4275
4062 1 4275 4276
4063 1 4276 4277
4064 1 4277 4278
4065 1 4278 4279
4066 1 4279 4280
4067 1 4281 4282
4068 1 4282 4283
4069 1 4283 4284
4070 1 4284 4285
4071 1 4285 4286
4072 1 4286 4287
4073 1 4287 4288
4074 1 4288 4289
4075 1 4289 4290
4076 1 4290 4291
4077 1 4291 4292
4078 1 4292 4293
4079 1 4293 4294
4080 1 4294 4295
4081 1 4295 4296
4082 1 4296 4297
4083 1 4297 4298
4084 1 4298 4299
4085 1 4299 4300
4086 1 4301 4302
4087 1 4302 4303
4088 1 4303 4304
4089 1 4304 4305
4090 1 4305 4306
4091 1 4306 4307
4092 1 4307 4308
4093 1 4308 4309
4094 1 4309 4310
4095 1 4310 4311
4096 1 4311 4312
4097 1 4312 4313
4098 1 4313 4314
4099 1 4314 4315
4100 1 4315 4316
4101 1 4316 4317
4102 1 4317 4318
4103 1 4318 4319
4104 1 4319 4320
4105 1 4321 4322
4106 1 4322 4323
4107 1 4323 4324
4108 1 4324 4325
4109 1 4325 4326
4110 1 4326 4327
4111 1 4327 4328
4112 1 4328 4329
4113 1 4329 4330
4114 1 4330 4331
4115 1 4331 4332
4116 1 4332 4333
4117 1 4333 4334
4118 1 4334 4335
4119 1 4335 4336
4120 1 4336 4337
4121 1 4337 4338
4122 1 4338 4339
4123 1 4339 4340
4124 1 4341 4342
4125 1 4342 4343
4126 1 4343 4344
4127 1 4344 4345
4128 1 4345 4346
4129 1 4346 4347
4130 1 4347 4348
4131 1 4348 4349
4132 1 4349 4350
4133 1 4350 4351
4134 1 4351 4352
4135 1 4352 4353
4136 1 4353 4354
4137 1 4354 4355
4138 1 4355 4356
4139 1 4356 4357
4140 1 4357 4358
4141 1 4358 4359
4142 1 4359 4360
4143 1 4361 4362
4144 1 4362 4363
4145 1 4363 4364
4146 1 4364 4365
4147 1 4365 4366
4148 1 4366 4367
4149 1 4367 4368
4150 1 4368 4369
4151 1 4369 4370
4152 1 4370 4371
4153 1 4371 4372
4154 1 4372 4373
4155 1 4373 4374
4156 1 4374 4375
4157 1 4375 4376
4158 1 4376 4377
4159 1 4377 4378
4160 1 4378 4379
4161 1 4379 4380
4162 1 4381 4382
4163 1 4382 4383
4164 1 4383 4384
4165 1 4384 4385
4166 1 4385 4386
4167 1 4386 4387
4168 1 4387 4388
4169 1 4388 4389
4170 1 4389 4390
4171 1 4390 4391
4172 1 4391 4392
4173 1 4392 4393
4174 1 4393 4394
4175 1 4394 4395
4176 1 4395 4396
4177 1 4396 4397
4178 1 4397 4398
4179 1 4398 4399
4180 1 4399 4400
4181 1 4401 4402
4182 1 4402 4403
4183 1 4403 4404
4184 1 4404 4405
4185 1 4405 4406
4186 1 4406 4407
4187 1 4407 4408
4188 1 4408 4409
4189 1 4409 4410
4190 1 4410 4411
4191 1 4411 4412
4192 1 4412 4413
4193 1 4413 4414
4194 1 4414 4415
4195 1 4415 4416
4196 1 4416 4417
4197 1 4417 4418
4198 1 4418 4419
4199 1 4419 4420
4200 1 4421 4422
4201 1 4422 4423
4202 1 4423 4424
4203 1 4424 4425
4204 1 4425 4426
4205 1 4426 4427
4206 1 4427 4428
4207 1 4428 4429
4208 1 4429 4430
4209 1 4430 4431
4210 1 4431 4432
4211 1 4432 4433
4212 1 4433 4434
4213 1 4434 4435
4214 1 4435 4436
4215 1 4436 4437
4216 1 4437 4438
4217 1 4438 4439
4218 1 4439 4440
4219 1 4441 4442
4220 1 4442 4443
4221 1 4443 4444
4222 1 4444 4445
4223 1 4445 4446
4224 1 4446 4447
4225 1 4447 4448
4226 1 4448 4449
4227 1 4449 4450
4228 1 4450 4451
4229 1 4451 4452
4230 1 4452 4453
4231 1 4453 4454
4232 1 4454 4455
4233 1 4455 4456
4234 1 4456 4457
4235 1 4457 4458
4236 1 4458 4459
4237 1 4459 4460
4238 1 4461 4462
4239 1 4462 4463
4240 1 4463 4464
4241 1 4464 4465
4242 1 4465 4466
4243 1 4466 4467
4244 1 4467 4468
4245 1 4468 4469
4246 1 4469 4470
4247 1 4470 4471
4248 1 4471 4472
4249 1 4472 4473
4250 1 4473 4474
4251 1 4474 4475
4252 1 4475 4476
4253 1 4476 4477
4254 1 4477 4478
4255 1 4478 4479
4256 1 4479 4480
4257 1 4481 4482
4258 1 4482 4483
4259 1 4483 4484
4260 1 4484 4485
4261 1 4485 4486
4262 1 4486 4487
4263 1 4487 4488
4264 1 4488 4489
4265 1 4489 4490
4266 1 4490 4491
4267 1 4491 4492
4268 1 4492 4493
4269 1 4493 4494
4270 1 4494 4495
4271 1 4495 4496
4272 1 4496 4497
4273 1 4497 4498
4274 1 4498 4499
4275 1 4499 4500
4276 1 4501 4502
4277 1 4502 4503
4278 1 4503 4504
4279 1 4504 4505
4280 1 4505 4506
4281 1 4506 4507
4282 1 4507 4508
4283 1 4508 4509
4284 1 4509 4510
4285 1 4510 4511
4286 1 4511 4512
4287 1 4512 4513
4288 1 4513 4514
4289 1 4514 4515
4290 1 4515 4516
4291 1 4516 4517
4292 1 4517 4518
4293 1 4518 4519
4294 1 4519 4520
4295 1 4521 4522
4296 1 4522 4523
4297 1 4523 4524
4298 1 4524 4525
4299 1 4525 4526
4300 1 4526 4527
4301 1 4527 4528
4302 1 4528 4529
4303 1 4529 4530
4304 1 4530 4531
4305 1 4531 4532
4306 1 4532 4533
4307 1 4533 4534
4308 1 4534 4535
4309 1 4535 4536
4310 1 4536 4537
4311 1 4537 4538
4312 1 4538 4539
4313 1 4539 4540
4314 1 4541 4542
4315 1 4542 4543
4316 1 4543 4544
4317 1 4544 4545
4318 1 4545 4546
4319 1 4546 4547
4320 1 4547 4548
4321 1 4548 4549
4322 1 4549 4550
4323 1 4550 4551
4324 1 4551 4552
4325 1 4552 4553
4326 1 4553 4554
4327 1 4554 4555
4328 1 4555 4556
4329 1 4556 4557
4330 1 4557 4558
4331 1 4558 4559
4332 1 4559 4560
4333 1 4561 4562
4334 1 4562 4563
4335 1 4563 4564
4336 1 4564 4565
4337 1 4565 4566
4338 1 4566 4567
4339 1 4567 4568
4340 1 4568 4569
4341 1 4569 4570
4342 1 4570 4571
4343 1 4571 4572
4344 1 4572 4573
4345 1 4573 4574
4346 1 4574 4575
4347 1 4575 4576
4348 1 4576 4577
4349 1 4577 4578
4350 1 4578 4579
4351 1 4579 4580
4352 1 4581 4582
4353 1 4582 4583
4354 1 4583 4584
4355 1 4584 4585
4356 1 4585 4586
4357 1 4586 4587
4358 1 4587 4588
4359 1 4588 4589
4360 1 4589 4590
4361 1 4590 4591
4362 1 4591 4592
4363 1 4592 4593
4364 1 4593 4594
4365 1 4594 4595
4366 1 4595 4596
4367 1 4596 4597
4368 1 4597 4598
4369 1 4598 4599
4370 1 4599 4600
4371 1 4601 4602
4372 1 4602 4603
4373 1 4603 4604
4374 1 4604 4605
4375 1 4605 4606
4376 1 4606 4607
4377 1 4607 4608
4378 1 4608 4609
4379 1 4609 4610
4380 1 4610 4611
4381 1 4611 4612
4382 1 4612 4613
4383 1 4613 4614
4384 1 4614 4615
4385 1 4615 4616
4386 1 4616 4617
4387 1 4617 4618
4388 1 4618 4619
4389 1 4619 4620
4390 1 4621 4622
4391 1 4622 4623
4392 1 4623 4624
4393 1 4624 4625
4394 1 4625 4626
4395 1 4626 4627
4396 1 4627 4628
4397 1 4628 4629
4398 1 4629 4630
4399 1 4630 4631
4400 1 4631 4632
4401 1 4632 4633
4402 1 4633 4634
4403 1 4634 4635
4404 1 4635 4636
4405 1 4636 4637
4406 1 4637 4638
4407 1 4638 4639
4408 1 4639 4640
4409 1 4641 4642
4410 1 4642 4643
4411 1 4643 4644
4412 1 4644 4645
4413 1 4645 4646
4414 1 4646 4647
4415 1 4647 4648
4416 1 4648 4649
4417 1 4649 4650
4418 1 4650 4651
4419 1 4651 4652
4420 1 4652 4653
4421 1 4653 4654
4422 1 4654 4655
4423 1 4655 4656
4424 1 4656 4657
4425 1 4657 4658
4426 1 4658 4659
4427 1 4659 4660
4428 1 4661 4662
4429 1 4662 4663
4430 1 4663 4664
4431 1 4664 4665
4432 1 4665 4666
4433 1 4666 4667
4434 1 4667 4668
4435 1 4668 4669
4436 1 4669 4670
4437 1 4670 4671
4438 1 4671 4672
4439 1 4672 4673
4440 1 4673 4674
4441 1 4674 4675
4442 1 4675 4676
4443 1 4676 4677
4444 1 4677 4678
4445 1 4678 4679
4446 1 4679 4680
4447 1 4681 4682
4448 1 4682 4683
4449 1 4683 4684
4450 1 4684 4685
4451 1 4685 4686
4452 1 4686 4687
4453 1 4687 4688
4454 1 4688 4689
4455 1 4689 4690
4456 1 4690 4691
4457 1 4691 4692
4458 1 4692 4693
4459 1 4693 4694
4460 1 4694 4695
4461 1 4695 4696
4462 1 4696 4697
4463 1 4697 4698
4464 1 4698 4699
4465 1 4699 4700
4466 1 4701 4702
4467 1 4702 4703
4468 1 4703 4704
4469 1 4704 4705
4470 1 4705 4706
4471 1 4706 4707
4472 1 4707 4708
4473 1 4708 4709
4474 1 4709 4710
4475 1 4710 4711
4476 1 4711 4712
4477 1 4712 4713
4478 1 4713 4714
4479 1 4714 4715
4480 1 4715 4716
4481 1 4716 4717
4482 1 4717 4718
4483 1 4718 4719
4484 1 4719 4720
4485 1 4721 4722
4486 1 4722 4723
4487 1 4723 4724
4488 1 4724 4725
4489 1 4725 4726
4490 1 4726 4727
4491 1 4727 4728
4492 1 4728 4729
4493 1 4729 4730
4494 1 4730 4731
4495 1 4731 4732
4496 1 4732 4733
4497 1 4733 4734
4498 1 4734 4735
4499 1 4735 4736
4500 1 4736 4737
4501 1 4737 4738
4502 1 4738 4739
4503 1 4739 4740
4504 1 4741 4742
4505 1 4742 4743
4506 1 4743 4744
4507 1 4744 4745
4508 1 4745 4746
4509 1 4746 4747
4510 1 4747 4748
4511 1 4748 4749
4512 1 4749 4750
4513 1 4750 4751
4514 1 4751 4752
4515 1 4752 4753
4516 1 4753 4754
4517 1 4754 4755
4518 1 4755 4756
4519 1 4756 4757
4520 1 4757 4758
4521 1 4758 4759
4522 1 4759 4760
4523 1 4761 4762
4524 1 4762 4763
4525 1 4763 4764
4526 1 4764 4765
4527 1 4765 4766
4528 1 4766 4767
4529 1 4767 4768
4530 1 4768 4769
4531 1 4769 4770
4532 1 4770 4771
4533 1 4771 4772
4534 1 4772 4773
4535 1 4773 4774
4536 1 4774 4775
4537 1 4775 4776
4538 1 4776 4777
4539 1 4777 4778
4540 1 4778 4779
4541 1 4779 4780
4542 1 4781 4782
4543 1 4782 4783
4544 1 4783 4784
4545 1 4784 4785
4546 1 4785 4786
4547 1 4786 4787
4548 1 4787 4788
4549 1 4788 4789
4550 1 4789 4790
4551 1 4790 4791
4552 1 4791 4792
4553 1 4792 4793
4554 1 4793 4794
4555 1 4794 4795
4556 1 4795 4796
4557 1 4796 4797
4558 1 4797 4798
4559 1 4798 4799
4560 1 4799 4800
4561 1 4801 4802
4562 1 4802 4803
4563 1 4803 4804
4564 1 4804 4805
4565 1 4805 4806
4566 1 4806 4807
4567 1 4807 4808
4568 1 4808 4809
4569 1 4809 4810
4570 1 4810 4811
4571 1 4811 4812
4572 1 4812 4813
4573 1 4813 4814
4574 1 4814 4815
4575 1 4815 4816
4576 1 4816 4817
4577 1 4817 4818
4578 1 4818 4819
4579 1 4819 4820
4580 1 4821 4822
4581 1 4822 4823
4582 1 4823 4824
4583 1 4824 4825
4584 1 4825 4826
4585 1 4826 4827
4586 1 4827 4828
4587 1 4828 4829
4588 1 4829 4830
4589 1 4830 4831
4590 1 4831 4832
4591 1 4832 4833
4592 1 4833 4834
4593 1 4834 4835
4594 1 4835 4836
4595 1 4836 4837
4596 1 4837 4838
4597 1 4838 4839
4598 1 4839 4840
4599 1 4841 4842
4600 1 4842 4843
4601 1 4843 4844
4602 1 4844 4845
4603 1 4845 4846
4604 1 4846 4847
4605 1 4847 4848
4606 1 4848 4849
4607 1 4849 4850
4608 1 4850 4851
4609 1 4851 4852
4610 1 4852 4853
4611 1 4853 4854
4612 1 4854 4855
4613 1 4855 4856
4614 1 4856 4857
4615 1 4857 4858
4616 1 4858 4859
4617 1 4859 4860
4618 1 4861 4862
4619 1 4862 4863
4620 1 4863 4864
4621 1 4864 4865
4622 1 4865 4866
4623 1 4866 4867
4624 1 4867 4868
4625 1 4868 4869
4626 1 4869 4870
4627 1 4870 4871
4628 1 4871 4872
4629 1 4872 4873
4630 1 4873 4874
4631 1 4874 4875
4632 1 4875 4876
4633 1 4876 4877
4634 1 4877 4878
4635 1 4878 4879
4636 1 4879 4880
4637 1 4881 4882
4638 1 4882 4883
4639 1 4883 4884
4640 1 4884 4885
4641 1 4885 4886
4642 1 4886 4887
4643 1 4887 4888
4644 1 4888 4889
4645 1 4889 4890
4646 1 4890 4891
4647 1 4891 4892
4648 1 4892 4893
4649 1 4893 4894
4650 1 4894 4895
4651 1 4895 4896
4652 1 4896 4897
4653 1 4897 4898
4654 1 4898 4899
4655 1 4899 4900
4656 1 4901 4902
4657 1 4902 4903
4658 1 4903 4904
4659 1 4904 4905
4660 1 4905 4906
4661 1 4906 4907
4662 1 4907 4908
4663 1 4908 4909
4664 1 4909 4910
4665 1 4910 4911
4666 1 4911 4912
4667 1 4912 4913
4668 1 4913 4914
4669 1 4914 4915
4670 1 4915 4916
4671 1 4916 4917
4672 1 4917 4918
4673 1 4918 4919
4674 1 4919 4920
4675 1 4921 4922
4676 1 4922 4923
4677 1 4923 4924
4678 1 4924 4925
4679 1 4925 4926
4680 1 4926 4927
4681 1 4927 4928
4682 1 4928 4929
4683 1 4929 4930
4684 1 4930 4931
4685 1 4931 4932
4686 1 4932 4933
4687 1 4933 4934
4688 1 4934 4935
4689 1 4935 4936
4690 1 4936 4937
4691 1 4937 4938
4692 1 4938 4939
4693 1 4939 4940
4694 1 4941 4942
4695 1 4942 4943
4696 1 4943 4944
4697 1 4944 4945
4698 1 4945 4946
4699 1 4946 4947
4700 1 4947 4948
4701 1 4948 4949
4702 1 4949 4950
4703 1 4950 4951
4704 1 4951 4952
4705 1 4952 4953
4706 1 4953 4954
4707 1 4954 4955
4708 1 4955 4956
4709 1 4956 4957
4710 1 4957 4958
4711 1 4958 4959
4712 1 4959 4960
4713 1 4961 4962
4714 1 4962 4963
4715 1 4963 4964
4716 1 4964 4965
4717 1 4965 4966
4718 1 4966 4967
4719 1 4967 4968
4720 1 4968 4969
4721 1 4969 4970
4722 1 4970 4971
4723 1 4971 4972
4724 1 4972 4973
4725 1 4973 4974
4726 1 4974 4975
4727 1 4975 4976
4728 1 4976 4977
4729 1 4977 4978
4730 1 4978 4979
4731 1 4979 4980
4732 1 4981 4982
4733 1 4982 4983
4734 1 4983 4984
4735 1 4984 4985
4736 1 4985 4986
4737 1 4986 4987
4738 1 4987 4988
4739 1 4988 4989
4740 1 4989 4990
4741 1 4990 4991
4742 1 4991 4992
4743 1 4992 4993
4744 1 4993 4994
4745 1 4994 4995
4746 1 4995 4996
4747 1 4996 4997
4748 1 4997 4998
4749 1 4998 4999
4750 1 4999 5000
4751 1 5001 5002
4752 1 5002 5003
4753 1 5003 5004
4754 1 5004 5005
4755 1 5005 5006
4756 1 5006 5007
4757 1 5007 5008
4758 1 5008 5009
4759 1 5009 5010
4760 1 5010 5011
4761 1 5011 5012
4762 1 5012 5013
4763 1 5013 5014
4764 1 5014 5015
4765 1 5015 5016
4766 1 5016 5017
4767 1 5017 5018
4768 1 5018 5019
4769 1 5019 5020
4770 1 5021 5022
4771 1 5022 5023
4772 1 5023 5024
4773 1 5024 5025
4774 1 5025 5026
4775 1 5026 5027
4776 1 5027 5028
4777 1 5028 5029
4778 1 5029 5030
4779 1 5030 5031
4780 1 5031 5032
4781 1 5032 5033
4782 1 5033 5034
4783 1 5034 5035
4784 1 5035 5036
4785 1 5036 5037
4786 1 5037 5038
4787 1 5038 5039
4788 1 5039 5040
4789 1 5041 5042
4790 1 5042 5043
4791 1 5043 5044
4792 1 5044 5045
4793 1 5045 5046
4794 1 5046 5047
4795 1 5047 5048
4796 1 5048 5049
4797 1 5049 5050
4798 1 5050 5051
4799 1 5051 5052
4800 1 5052 5053
4801 1 5053 5054
4802 1 5054 5055
4803 1 5055 5056
4804 1 5056 5057
4805 1 5057 5058
4806 1 5058 5059
4807 1 5059 5060
4808 1 5061 5062
4809 1 5062 5063
4810 1 5063 5064
4811 1 5064 5065
4812 1 5065 5066
4813 1 5066 5067
4814 1 5067 5068
4815 1 5068 5069
4816 1 5069 5070
4817 1 5070 5071
4818 1 5071 5072
4819 1 5072 5073
4820 1 5073 5074
4821 1 5074 5075
4822 1 5075 5076
4823 1 5076 5077
4824 1 5077 5078
4825 1 5078 5079
4826 1 5079 5080
4827 1 5081 5082
4828 1 5082 5083
4829 1 5083 5084
4830 1 5084 5085
4831 1 5085 5086
4832 1 5086 5087
4833 1 5087 5088
4834 1 5088 5089
4835 1 5089 5090
4836 1 5090 5091
4837 1 5091 5092
4838 1 5092 5093
4839 1 5093 5094
4840 1 5094 5095
4841 1 5095 5096
4842 1 5096 5097
4843 1 5097 5098
4844 1 5098 5099
4845 1 5099 5100
4846 1 5101 5102
4847 1 5102 5103
4848 1 5103 5104
4849 1 5104 5105
4850 1 5105 5106
4851 1 5106 5107
4852 1 5107 5108
4853 1 5108 5109
4854 1 5109 5110
4855 1 5110 5111
4856 1 5111 5112
4857 1 5112 5113
4858 1 5113 5114
4859 1 5114 5115
4860 1 5115 5116
4861 1 5116 5117
4862 1 5117 5118
4863 1 5118 5119
4864 1 5119 5120
4865 1 5121 5122
4866 1 5122 5123
4867 1 5123 5124
4868 1 5124 5125
4869 1 5125 5126
4870 1 5126 5127
4871 1 5127 5128
4872 1 5128 5129
4873 1 5129 5130
4874 1 5130 5131
4875 1 5131 5132
4876 1 5132 5133
4877 1 5133 5134
4878 1 5134 5135
4879 1 5135 5136
4880 1 5136 5137
4881 1 5137 5138
4882 1 5138 5139
4883 1 5139 5140
4884 1 5141 5142
4885 1 5142 5143
4886 1 5143 5144
4887 1 5144 5145
4888 1 5145 5146
4889 1 5146 5147
4890 1 5147 5148
4891 1 5148 5149
4892 1 5149 5150
4893 1 5150 5151
4894 1 5151 5152
4895 1 5152 5153
4896 1 5153 5154
4897 1 5154 5155
4898 1 5155 5156
4899 1 5156 5157
4900 1 5157 5158
4901 1 5158 5159
4902 1 5159 5160
4903 1 5161 5162
4904 1 5162 5163
4905 1 5163 5164
4906 1 5164 5165
4907 1 5165 5166
4908 1 5166 5167
4909 1 5167 5168
4910 1 5168 5169
4911 1 5169 5170
4912 1 5170 5171
4913 1 5171 5172
4914 1 5172 5173
4915 1 5173 5174
4916 1 5174 5175
4917 1 5175 5176
4918 1 5176 5177
4919 1 5177 5178
4920 1 5178 5179
4921 1 5179 5180
4922 1 5181 5182
4923 1 5182 5183
4924 1 5183 5184
4925 1 5184 5185
4926 1 5185 5186
4927 1 5186 5187
4928 1 5187 5188
4929 1 5188 5189
4930 1 5189 5190
4931 1 5190 5191
4932 1 5191 5192
4933 1 5192 5193
4934 1 5193 5194
4935 1 5194 5195
4936 1 5195 5196
4937 1 5196 5197
4938 1 5197 5198
4939 1 5198 5199
4940 1 5199 5200
4941 1 5201 5202
4942 1 5202 5203
4943 1 5203 5204
4944 1 5204 5205
4945 1 5205 5206
4946 1 5206 5207
4947 1 5207 5208
4948 1 5208 5209
4949 1 5209 5210
4950 1 5210 5211
4951 1 5211 5212
4952 1 5212 5213
4953 1 5213 5214
4954 1 5214 5215
4955 1 5215 5216
4956 1 5216 5217
4957 1 5217 5218
4958 1 5218 5219
4959 1 5219 5220
4960 1 5221 5222
4961 1 5222 5223
4962 1 5223 5224
4963 1 5224 5225
4964 1 5225 5226
4965 1 5226 5227
4966 1 5227 5228
4967 1 5228 5229
4968 1 5229 5230
4969 1 5230 5231
4970 1 5231 5232
4971 1 5232 5233
4972 1 5233 5234
4973 1 5234 5235
4974 1 5235 5236
4975 1 5236 5237
4976 1 5237 5238
4977 1 5238 5239
4978 1 5239 5240
4979 1 5241 5242
4980 1 5242 5243
4981 1 5243 5244
4982 1 5244 5245
4983 1 5245 5246
4984 1 5246 5247
4985 1 5247 5248
4986 1 5248 5249
4987 1 5249 5250
4988 1 5250 5251
4989 1 5251 5252
4990 1 5252 5253
4991 1 5253 5254
4992 1 5254 5255
4993 1 5255 5256
4994 1 5256 5257
4995 1 5257 5258
4996 1 5258 5259
4997 1 5259 5260
4998 1 5261 5262
4999 1 5262 5263
5000 1 5263 5264
5001 1 5264 5265
5002 1 5265 5266
5003 1 5266 5267
5004 1 5267 5268
5005 1 5268 5269
5006 1 5269 5270
5007 1 5270 5271
5008 1 5271 5272
5009 1 5272 5273
5010 1 5273 5274
5011 1 5274 5275
5012 1 5275 5276
5013 1 5276 5277
5014 1 5277 5278
5015 1 5278 5279
5016 1 5279 5280
5017 1 5281 5282
5018 1 5282 5283
5019 1 5283 5284
5020 1 5284 5285
5021 1 5285 5286
5022 1 5286 5287
5023 1 5287 5288
5024 1 5288 5289
5025 1 5289 5290
5026 1 5290 5291
5027 1 5291 5292
5028 1 5292 5293
5029 1 5293 5294
5030 1 5294 5295
5031 1 5295 5296
5032 1 5296 5297
5033 1 5297 5298
5034 1 5298 5299
5035 1 5299 5300
5036 1 5301 5302
5037 1 5302 5303
5038 1 5303 5304
5039 1 5304 5305
5040 1 5305 5306
5041 1 5306 5307
5042 1 5307 5308
5043 1 5308 5309
5044 1 5309 5310
5045 1 5310 5311
5046 1 5311 5312
5047 1 5312 5313
5048 1 5313 5314
5049 1 5314 5315
5050 1 5315 5316
5051 1 5316 5317
5052 1 5317 5318
5053 1 5318 5319
5054 1 5319 5320
5055 1 5321 5322
5056 1 5322 5323
5057 1 5323 5324
5058 1 5324 5325
5059 1 5325 5326
5060 1 5326 5327
5061 1 5327 5328
5062 1 5328 5329
5063 1 5329 5330
5064 1 5330 5331
5065 1 5331 5332
5066 1 5332 5333
5067 1 5333 5334
5068 1 5334 5335
5069 1 5335 5336
5070 1 5336 5337
5071 1 5337 5338
5072 1 5338 5339
5073 1 5339 5340
5074 1 5341 5342
5075 1 5342 5343
5076 1 5343 5344
5077 1 5344 5345
5078 1 5345 5346
5079 1 5346 5347
5080 1 5347 5348
5081 1 5348 5349
5082 1 5349 5350
5083 1 5350 5351
5084 1 5351 5352
5085 1 5352 5353
5086 1 5353 5354
5087 1 5354 5355
5088 1 5355 5356
5089 1 5356 5357
5090 1 5357 5358
5091 1 5358 5359
5092 1 5359 5360
5093 1 5361 5362
5094 1 5362 5363
5095 1 5363 5364
5096 1 5364 5365
5097 1 5365 5366
5098 1 5366 5367
5099 1 5367 5368
5100 1 5368 5369
5101 1 5369 5370
5102 1 5370 5371
5103 1 5371 5372
5104 1 5372 5373
5105 1 5373 5374
5106 1 5374 5375
5107 1 5375 5376
5108 1 5376 5377
5109 1 5377 5378
5110 1 5378 5379
5111 1 5379 5380
5112 1 5381 5382
5113 1 5382 5383
5114 1 5383 5384
5115 1 5384 5385
5116 1 5385 5386
5117 1 5386 5387
5118 1 5387 5388
5119 1 5388 5389
5120 1 5389 5390
5121 1 5390 5391
5122 1 5391 5392
5123 1 5392 5393
5124 1 5393 5394
5125 1 5394 5395
5126 1 5395 5396
5127 1 5396 5397
5128 1 5397 5398
5129 1 5398 5399
5130 1 5399 5400
5131 1 5401 5402
5132 1 5402 5403
5133 1 5403 5404
5134 1 5404 5405
5135 1 5405 5406
5136 1 5406 5407
5137 1 5407 5408
5138 1 5408 5409
5139 1 5409 5410
5140 1 5410 5411
5141 1 5411 5412
5142 1 5412 5413
5143 1 5413 5414
5144 1 5414 5415
5145 1 5415 5416
5146 1 5416 5417
5147 1 5417 5418
5148 1 5418 5419
5149 1 5419 5420
5150 1 5421 5422
5151 1 5422 5423
5152 1 5423 5424
5153 1 5424 5425
5154 1 5425 5426
5155 1 5426 5427
5156 1 5427 5428
5157 1 5428 5429
5158 1 5429 5430
5159 1 5430 5431
5160 1 5431 5432
5161 1 5432 5433
5162 1 5433 5434
5163 1 5434 5435
5164 1 5435 5436
5165 1 5436 5437
5166 1 5437 5438
5167 1 5438 5439
5168 1 5439 5440
5169 1 5441 5442
5170 1 5442 5443
5171 1 5443 5444
5172 1 5444 5445
5173 1 5445 5446
5174 1 5446 5447
5175 1 5447 5448
5176 1 5448 5449
5177 1 5449 5450
5178 1 5450 5451
5179 1 5451 5452
5180 1 5452 5453
5181 1 5453 5454
5182 1 5454 5455
5183 1 5455 5456
5184 1 5456 5457
5185 1 5457 5458
5186 1 5458 5459
5187 1 5459 5460
5188 1 5461 5462
5189 1 5462 5463
5190 1 5463 5464
5191 1 5464 5465
5192 1 5465 5466
5193 1 5466 5467
5194 1 5467 5468
5195 1 5468 5469
5196 1 5469 5470
5197 1 5470 5471
5198 1 5471 5472
5199 1 5472 5473
5200 1 5473 5474
5201 1 5474 5475
5202 1 5475 5476
5203 1 5476 5477
5204 1 5477 5478
5205 1 5478 5479
5206 1 5479 5480
5207 1 5481 5482
5208 1 5482 5483
5209 1 5483 5484
5210 1 5484 5485
5211 1 5485 5486
5212 1 5486 5487
5213 1 5487 5488
5214 1 5488 5489
5215 1 5489 5490
5216 1 5490 5491
5217 1 5491 5492
5218 1 5492 5493
5219 1 5493 5494
5220 1 5494 5495
5221 1 5495 5496
5222 1 5496 5497
5223 1 5497 5498
5224 1 5498 5499
5225 1 5499 5500
5226 1 5501 5502
5227 1 5502 5503
5228 1 5503 5504
5229 1 5504 5505
5230 1 5505 5506
5231 1 5506 5507
5232 1 5507 5508
5233 1 5508 5509
5234 1 5509 5510
5235 1 5510 5511
5236 1 5511 5512
5237 1 5512 5513
5238 1 5513 5514
5239 1 5514 5515
5240 1 5515 5516
5241 1 5516 5517
5242 1 5517 5518
5243 1 5518 5519
5244 1 5519 5520
5245 1 5521 5522
5246 1 5522 5523
5247 1 5523 5524
5248 1 5524 5525
5249 1 5525 5526
5250 1 5526 5527
5251 1 5527 5528
5252 1 5528 5529
5253 1 5529 5530
5254 1 5530 5531
5255 1 5531 5532
5256 1 5532 5533
5257 1 5533 5534
5258 1 5534 5535
5259 1 5535 5536
5260 1 5536 5537
5261 1 5537 5538
5262 1 5538 5539
5263 1 5539 5540
5264 1 5541 5542
5265 1 5542 5543
5266 1 5543 5544
5267 1 5544 5545
5268 1 5545 5546
5269 1 5546 5547
5270 1 5547 5548
5271 1 5548 5549
5272 1 5549 5550
5273 1 5550 5551
5274 1 5551 5552
5275 1 5552 5553
5276 1 5553 5554
5277 1 5554 5555
5278 1 5555 5556
5279 1 5556 5557
5280 1 5557 5558
5281 1 5558 5559
5282 1 5559 5560
5283 1 5561 5562
5284 1 5562 5563
5285 1 5563 5564
5286 1 5564 5565
5287 1 5565 5566
5288 1 5566 5567
5289 1 5567 5568
5290 1 5568 5569
5291 1 5569 5570
5292 1 5570 5571
5293 1 5571 5572
5294 1 5572 5573
5295 1 5573 5574
5296 1 5574 5575
5297 1 5575 5576
5298 1 5576 5577
5299 1 5577 5578
5300 1 5578 5579
5301 1 5579 5580
5302 1 5581 5582
5303 1 5582 5583
5304 1 5583 5584
5305 1 5584 5585
5306 1 5585 5586
5307 1 5586 5587
5308 1 5587 5588
5309 1 5588 5589
5310 1 5589 5590
5311 1 5590 5591
5312 1 5591 5592
5313 1 5592 5593
5314 1 5593 5594
5315 1 5594 5595
5316 1 5595 5596
5317 1 5596 5597
5318 1 5597 5598
5319 1 5598 5599
5320 1 5599 5600
5321 1 5601 5602
5322 1 5602 5603
5323 1 5603 5604
5324 1 5604 5605
5325 1 5605 5606
5326 1 5606 5607
5327 1 5607 5608
5328 1 5608 5609
5329 1 5609 5610
5330 1 5610 5611
5331 1 5611 5612
5332 1 5612 5613
5333 1 5613 5614
5334 1 5614 5615
5335 1 5615 5616
5336 1 5616 5617
5337 1 5617 5618
5338 1 5618 5619
5339 1 5619 5620
5340 1 5621 5622
5341 1 5622 5623
5342 1 5623 5624
5343 1 5624 5625
5344 1 5625 5626
5345 1 5626 5627
5346 1 5627 5628
5347 1 5628 5629
5348 1 5629 5630
5349 1 5630 5631
5350 1 5631 5632
5351 1 5632 5633
5352 1 5633 5634
5353 1 5634 5635
5354 1 5635 5636
5355 1 5636 5637
5356 1 5637 5638
5357 1 5638 5639
5358 1 5639 5640
5359 1 5641 5642
5360 1 5642 5643
5361 1 5643 5644
5362 1 5644 5645
5363 1 5645 5646
5364 1 5646 5647
5365 1 5647 5648
5366 1 5648 5649
5367 1 5649 5650
5368 1 5650 5651
5369 1 5651 5652
5370 1 5652 5653
5371 1 5653 5654
5372 1 5654 5655
5373 1 5655 5656
5374 1 5656 5657
5375 1 5657 5658
5376 1 5658 5659
5377 1 5659 5660
5378 1 5661 5662
5379 1 5662 5663
5380 1 5663 5664
5381 1 5664 5665
5382 1 5665 5666
5383 1 5666 5667
5384 1 5667 5668
5385 1 5668 5669
5386 1 5669 5670
5387 1 5670 5671
5388 1 5671 5672
5389 1 5672 5673
5390 1 5673 5674
5391 1 5674 5675
5392 1 5675 5676
5393 1 5676 5677
5394 1 5677 5678
5395 1 5678 5679
5396 1 5679 5680
5397 1 5681 5682
5398 1 5682 5683
5399 1 5683 5684
5400 1 5684 5685
5401 1 5685 5686
5402 1 5686 5687
5403 1 5687 5688
5404 1 5688 5689
5405 1 5689 5690
5406 1 5690 5691
5407 1 5691 5692
5408 1 5692 5693
5409 1 5693 5694
5410 1 5694 5695
5411 1 5695 5696
5412 1 5696 5697
5413 1 5697 5698
5414 1 5698 5699
5415 1 5699 5700
5416 1 5701 5702
5417 1 5702 5703
5418 1 5703 5704
5419 1 5704 5705
5420 1 5705 5706
5421 1 5706 5707
5422 1 5707 5708
5423 1 5708 5709
5424 1 5709 5710
5425 1 5710 5711
5426 1 5711 5712
5427 1 5712 5713
5428 1 5713 5714
5429 1 5714 5715
5430 1 5715 5716
5431 1 5716 5717
5432 1 5717 5718
5433 1 5718 5719
5434 1 5719 5720
5435 1 5721 5722
5436 1 5722 5723
5437 1 5723 5724
5438 1 5724 5725
5439 1 5725 5726
5440 1 5726 5727
5441 1 5727 5728
5442 1 5728 5729
5443 1 5729 5730
5444 1 5730 5731
5445 1 5731 5732
5446 1 5732 5733
5447 1 5733 5734
5448 1 5734 5735
5449 1 5735 5736
5450 1 5736 5737
5451 1 5737 5738
5452 1 5738 5739
5453 1 5739 5740
5454 1 5741 5742
5455 1 5742 5743
5456 1 5743 5744
5457 1 5744 5745
5458 1 5745 5746
5459 1 5746 5747
5460 1 5747 5748
5461 1 5748 5749
5462 1 5749 5750
5463 1 5750 5751
5464 1 5751 5752
5465 1 5752 5753
5466 1 5753 5754
5467 1 5754 5755
5468 1 5755 5756
5469 1 5756 5757
5470 1 5757 5758
5471 1 5758 5759
5472 1 5759 5760
5473 1 5761 5762
5474 1 5762 5763
5475 1 5763 5764
5476 1 5764 5765
5477 1 5765 5766
5478 1 5766 5767
5479 1 5767 5768
5480 1 5768 5769
5481 1 5769 5770
5482 1 5770 5771
5483 1 5771 5772
5484 1 5772 5773
5485 1 5773 5774
5486 1 5774 5775
5487 1 5775 5776
5488 1 5776 5777
5489 1 5777 5778
5490 1 5778 5779
5491 1 5779 5780
5492 1 5781 5782
5493 1 5782 5783
5494 1 5783 5784
5495 1 5784 5785
5496 1 5785 5786
5497 1 5786 5787
5498 1 5787 5788
5499 1 5788 5789
5500 1 5789 5790
5501 1 5790 5791
5502 1 5791 5792
5503 1 5792 5793
5504 1 5793 5794
5505 1 5794 5795
5506 1 5795 5796
5507 1 5796 5797
5508 1 5797 5798
5509 1 5798 5799
5510 1 5799 5800
5511 1 5801 5802
5512 1 5802 5803
5513 1 5803 5804
5514 1 5804 5805
5515 1 5805 5806
5516 1 5806 5807
5517 1 5807 5808
5518 1 5808 5809
5519 1 5809 5810
5520 1 5810 5811
5521 1 5811 5812
5522 1 5812 5813
5523 1 5813 5814
5524 1 5814 5815
5525 1 5815 5816
5526 1 5816 5817
5527 1 5817 5818
5528 1 5818 5819
5529 1 5819 5820
5530 1 5821 5822
5531 1 5822 5823
5532 1 5823 5824
5533 1 5824 5825
5534 1 5825 5826
5535 1 5826 5827
5536 1 5827 5828
5537 1 5828 5829
5538 1 5829 5830
5539 1 5830 5831
5540 1 5831 5832
5541 1 5832 5833
5542 1 5833 5834
5543 1 5834 5835
5544 1 5835 5836
5545 1 5836 5837
5546 1 5837 5838
5547 1 5838 5839
5548 1 5839 5840
5549 1 5841 5842
5550 1 5842 5843
5551 1 5843 5844
5552 1 5844 5845
5553 1 5845 5846
5554 1 5846 5847
5555 1 5847 5848
5556 1 5848 5849
5557 1 5849 5850
5558 1 5850 5851
5559 1 5851 5852
5560 1 5852 5853
5561 1 5853 5854
5562 1 5854 5855
5563 1 5855 5856
5564 1 5856 5857
5565 1 5857 5858
5566 1 5858 5859
5567 1 5859 5860
5568 1 5861 5862
5569 1 5862 5863
5570 1 5863 5864
5571 1 5864 5865
5572 1 5865 5866
5573 1 5866 5867
5574 1 5867 5868
5575 1 5868 5869
5576 1 5869 5870
5577 1 5870 5871
5578 1 5871 5872
5579 1 5872 5873
5580 1 5873 5874
5581 1 5874 5875
5582 1 5875 5876
5583 1 5876 5877
5584 1 5877 5878
5585 1 5878 5879
5586 1 5879 5880
5587 1 5881 5882
5588 1 5882 5883
5589 1 5883 5884
5590 1 5884 5885
5591 1 5885 5886
5592 1 5886 5887
5593 1 5887 5888
5594 1 5888 5889
5595 1 5889 5890
5596 1 5890 5891
5597 1 5891 5892
5598 1 5892 5893
5599 1 5893 5894
5600 1 5894 5895
5601 1 5895 5896
5602 1 5896 5897
5603 1 5897 5898
5604 1 5898 5899
5605 1 5899 5900
5606 1 5901 5902
5607 1 5902 5903
5608 1 5903 5904
5609 1 5904 5905
5610 1 5905 5906
5611 1 5906 5907
5612 1 5907 5908
5613 1 5908 5909
5614 1 5909 5910
5615 1 5910 5911
5616 1 5911 5912
5617 1 5912 5913
5618 1 5913 5914
5619 1 5914 5915
5620 1 5915 5916
5621 1 5916 5917
5622 1 5917 5918
5623 1 5918 5919
5624 1 5919 5920
5625 1 5921 5922
5626 1 5922 5923
5627 1 5923 5924
5628 1 5924 5925
5629 1 5925 5926
5630 1 5926 5927
5631 1 5927 5928
5632 1 5928 5929
5633 1 5929 5930
5634 1 5930 5931
5635 1 5931 5932
5636 1 5932 5933
5637 1 5933 5934
5638 1 5934 5935
5639 1 5935 5936
5640 1 5936 5937
5641 1 5937 5938
5642 1 5938 5939
5643 1 5939 5940
5644 1 5941 5942
5645 1 5942 5943
5646 1 5943 5944
5647 1 5944 5945
5648 1 5945 5946
5649 1 5946 5947
5650 1 5947 5948
5651 1 5948 5949
5652 1 5949 5950
5653 1 5950 5951
5654 1 5951 5952
5655 1 5952 5953
5656 1 5953 5954
5657 1 5954 5955
5658 1 5955 5956
5659 1 5956 5957
5660 1 5957 5958
5661 1 5958 5959
5662 1 5959 5960
5663 1 5961 5962
5664 1 5962 5963
5665 1 5963 5964
5666 1 5964 5965
5667 1 5965 5966
5668 1 5966 5967
5669 1 5967 5968
5670 1 5968 5969
5671 1 5969 5970
5672 1 5970 5971
5673 1 5971 5972
5674 1 5972 5973
5675 1 5973 5974
5676 1 5974 5975
5677 1 5975 5976
5678 1 5976 5977
5679 1 5977 5978
5680 1 5978 5979
5681 1 5979 5980
5682 1 5981 5982
5683 1 5982 5983
5684 1 5983 5984
5685 1 5984 5985
5686 1 5985 5986
5687 1 5986 5987
5688 1 5987 5988
5689 1 5988 5989
5690 1 5989 5990
5691 1 5990 5991
5692 1 5991 5992
5693 1 5992 5993
5694 1 5993 5994
5695 1 5994 5995
5696 1 5995 5996
5697 1 5996 5997
5698 1 5997 5998
5699 1 5998 5999
5700 1 5999 6000
5701 1 6001 6002
5702 1 6002 6003
5703 1 6003 6004
5704 1 6004 6005
5705 1 6005 6006
5706 1 6006 6007
5707 1 6007 6008
5708 1 6008 6009
5709 1 6009 6010
5710 1 6010 6011
5711 1 6011 6012
5712 1 6012 6013
5713 1 6013 6014
5714 1 6014 6015
5715 1 6015 6016
5716 1 6016 6017
5717 1 6017 6018
5718 1 6018 6019
5719 1 6019 6020
5720 1 6021 6022
5721 1 6022 6023
5722 1 6023 6024
5723 1 6024 6025
5724 1 6025 6026
5725 1 6026 6027
5726 1 6027 6028
5727 1 6028 6029
5728 1 6029 6030
5729 1 6030 6031
5730 1 6031 6032
5731 1 6032 6033
5732 1 6033 6034
5733 1 6034 6035
5734 1 6035 6036
5735 1 6036 6037
5736 1 6037 6038
5737 1 6038 6039
5738 1 6039 6040
5739 1 6041 6042
5740 1 6042 6043
5741 1 6043 6044
5742 1 6044 6045
5743 1 6045 6046
5744 1 6046 6047
5745 1 6047 6048
5746 1 6048 6049
5747 1 6049 6050
5748 1 6050 6051
5749 1 6051 6052
5750 1 6052 6053
5751 1 6053 6054
5752 1 6054 6055
5753 1 6055 6056
5754 1 6056 6057
5755 1 6057 6058
5756 1 6058 6059
5757 1 6059 6060
5758 1 6061 6062
5759 1 6062 6063
5760 1 6063 6064
5761 1 6064 6065
5762 1 6065 6066
5763 1 6066 6067
5764 1 6067 6068
5765 1 6068 6069
5766 1 6069 6070
5767 1 6070 6071
5768 1 6071 6072
5769 1 6072 6073
5770 1 6073 6074
5771 1 6074 6075
5772 1 6075 6076
5773 1 6076 6077
5774 1 6077 6078
5775 1 6078 6079
5776 1 6079 6080
5777 1 6081 6082
5778 1 6082 6083
5779 1 6083 6084
5780 1 6084 6085
5781 1 6085 6086
5782 1 6086 6087
5783 1 6087 6088
5784 1 6088 6089
5785 1 6089 6090
5786 1 6090 6091
5787 1 6091 6092
5788 1 6092 6093
5789 1 6093 6094
5790 1 6094 6095
5791 1 6095 6096
5792 1 6096 6097
5793 1 6097 6098
5794 1 6098 6099
5795 1 6099 6100
5796 1 6101 6102
5797 1 6102 6103
5798 1 6103 6104
5799 1 6104 6105
5800 1 6105 6106
5801 1 6106 6107
5802 1 6107 6108
5803 1 6108 6109
5804 1 6109 6110
5805 1 6110 6111
5806 1 6111 6112
5807 1 6112 6113
5808 1 6113 6114
5809 1 6114 6115
5810 1 6115 6116
5811 1 6116 6117
5812 1 6117 6118
5813 1 6118 6119
5814 1 6119 6120
5815 1 6121 6122
5816 1 6122 6123
5817 1 6123 6124
5818 1 6124 6125
5819 1 6125 6126
5820 1 6126 6127
5821 1 6127 6128
5822 1 6128 6129
5823 1 6129 6130
5824 1 6130 6131
5825 1 6131 6132
5826 1 6132 6133
5827 1 6133 6134
5828 1 6134 6135
5829 1 6135 6136
5830 1 6136 6137
5831 1 6137 6138
5832 1 6138 6139
5833 1 6139 6140
5834 1 6141 6142
5835 1 6142 6143
5836 1 6143 6144
5837 1 6144 6145
5838 1 6145 6146
5839 1 6146 6147
5840 1 6147 6148
5841 1 6148 6149
5842 1 6149 6150
5843 1 6150 6151
5844 1 6151 6152
5845 1 6152 6153
5846 1 6153 6154
5847 1 6154 6155
5848 1 6155 6156
5849 1 6156 6157
5850 1 6157 6158
5851 1 6158 6159
5852 1 6159 6160
5853 1 6161 6162
5854 1 6162 6163
5855 1 6163 6164
5856 1 6164 6165
5857 1 6165 6166
5858 1 6166 6167
5859 1 6167 6168
5860 1 6168 6169
5861 1 6169 6170
5862 1 6170 6171
5863 1 6171 6172
5864 1 6172 6173
5865 1 6173 6174
5866 1 6174 6175
5867 1 6175 6176
5868 1 6176 6177
5869 1 6177 6178
5870 1 6178 6179
5871 1 6179 6180
5872 1 6181 6182
5873 1 6182 6183
5874 1 6183 6184
5875 1 6184 6185
5876 1 6185 6186
5877 1 6186 6187
5878 1 6187 6188
5879 1 6188 6189
5880 1 6189 6190
5881 1 6190 6191
5882 1 6191 6192
5883 1 6192 6193
5884 1 6193 6194
5885 1 6194 6195
5886 1 6195 6196
5887 1 6196 6197
5888 1 6197 6198
5889 1 6198 6199
5890 1 6199 6200
5891 1 6201 6202
5892 1 6202 6203
5893 1 6203 6204
5894 1 6204 6205
5895 1 6205 6206
5896 1 6206 6207
5897 1 6207 6208
5898 1 6208 6209
5899 1 6209 6210
5900 1 6210 6211
5901 1 6211 6212
5902 1 6212 6213
5903 1 6213 6214
5904 1 6214 6215
5905 1 6215 6216
5906 1 6216 6217
5907 1 6217 6218
5908 1 6218 6219
5909 1 6219 6220
5910 1 6221 6222
5911 1 6222 6223
5912 1 6223 6224
5913 1 6224 6225
5914 1 6225 6226
5915 1 6226 6227
5916 1 6227 6228
5917 1 6228 6229
5918 1 6229 6230
5919 1 6230 6231
5920 1 6231 6232
5921 1 6232 6233
5922 1 6233 6234
5923 1 6234 6235
5924 1 6235 6236
5925 1 6236 6237
5926 1 6237 6238
5927 1 6238 6239
5928 1 6239 6240
5929 1 6241 6242
5930 1 6242 6243
5931 1 6243 6244
5932 1 6244 6245
5933 1 6245 6246
5934 1 6246 6247
5935 1 6247 6248
5936 1 6248 6249
5937 1 6249 6250
5938 1 6250 6251
5939 1 6251 6252
5940 1 6252 6253
5941 1 6253 6254
5942 1 6254 6255
5943 1 6255 6256
5944 1 6256 6257
5945 1 6257 6258
5946 1 6258 6259
5947 1 6259 6260
5948 1 6261 6262
5949 1 6262 6263
5950 1 6263 6264
5951 1 6264 6265
5952 1 6265 6266
5953 1 6266 6267
5954 1 6267 6268
5955 1 6268 6269
5956 1 6269 6270
5957 1 6270 6271
5958 1 6271 6272
5959 1 6272 6273
5960 1 6273 6274
5961 1 6274 6275
5962 1 6275 6276
5963 1 6276 6277
5964 1 6277 6278
5965 1 6278 6279
5966 1 6279 6280
5967 1 6281 6282
5968 1 6282 6283
5969 1 6283 6284
5970 1 6284 6285
5971 1 6285 6286
5972 1 6286 6287
5973 1 6287 6288
5974 1 6288 6289
5975 1 6289 6290
5976 1 6290 6291
5977 1 6291 6292
5978 1 6292 6293
5979 1 6293 6294
5980 1 6294 6295
5981 1 6295 6296
5982 1 6296 6297
5983 1 6297 6298
5984 1 6298 6299
5985 1 6299 6300
5986 1 6301 6302
5987 1 6302 6303
5988 1 6303 6304
5989 1 6304 6305
5990 1 6305 6306
5991 1 6306 6307
5992 1 6307 6308
5993 1 6308 6309
5994 1 6309 6310
5995 1 6310 6311
5996 1 6311 6312
5997 1 6312 6313
5998 1 6313 6314
5999 1 6314 6315
6000 1 6315 6316
6001 1 6316 6317
6002 1 6317 6318
6003 1 6318 6319
6004 1 6319 6320
6005 1 6321 6322
6006 1 6322 6323
6007 1 6323 6324
6008 1 6324 6325
6009 1 6325 6326
6010 1 6326 6327
6011 1 6327 6328
6012 1 6328 6329
6013 1 6329 6330
6014 1 6330 6331
6015 1 6331 6332
6016 1 6332 6333
6017 1 6333 6334
6018 1 6334 6335
6019 1 6335 6336
6020 1 6336 6337
6021 1 6337 6338
6022 1 6338 6339
6023 1 6339 6340
6024 1 6341 6342
6025 1 6342 6343
6026 1 6343 6344
6027 1 6344 6345
6028 1 6345 6346
6029 1 6346 6347
6030 1 6347 6348
6031 1 6348 6349
6032 1 6349 6350
6033 1 6350 6351
6034 1 6351 6352
6035 1 6352 6353
6036 1 6353 6354
6037 1 6354 6355
6038 1 6355 6356
6039 1 6356 6357
6040 1 6357 6358
6041 1 6358 6359
6042 1 6359 6360
6043 1 6361 6362
6044 1 6362 6363
6045 1 6363 6364
6046 1 6364 6365
6047 1 6365 6366
6048 1 6366 6367
6049 1 6367 6368
6050 1 6368 6369
6051 1 6369 6370
6052 1 6370 6371
6053 1 6371 6372
6054 1 6372 6373
6055 1 6373 6374
6056 1 6374 6375
6057 1 6375 6376
6058 1 6376 6377
6059 1 6377 6378
6060 1 6378 6379
6061 1 6379 6380
6062 1 6381 6382
6063 1 6382 6383
6064 1 6383 6384
6065 1 6384 6385
6066 1 6385 6386
6067 1 6386 6387
6068 1 6387 6388
6069 1 6388 6389
6070 1 6389 6390
6071 1 6390 6391
6072 1 6391 6392
6073 1 6392 6393
6074 1 6393 6394
6075 1 6394 6395
6076 1 6395 6396
6077 1 6396 6397
6078 1 6397 6398
6079 1 6398 6399
6080 1 6399 6400
6081 1 6401 6402
6082 1 6402 6403
6083 1 6403 6404
6084 1 6404 6405
6085 1 6405 6406
6086 1 6406 6407
6087 1 6407 6408
6088 1 6408 6409
6089 1 6409 6410
6090 1 6410 6411
6091 1 6411 6412
6092 1 6412 6413
6093 1 6413 6414
6094 1 6414 6415
6095 1 6415 6416
6096 1 6416 6417
6097 1 6417 6418
6098 1 6418 6419
6099 1 6419 6420
6100 1 6421 6422
6101 1 6422 6423
6102 1 6423 6424
6103 1 6424 6425
6104 1 6425 6426
6105 1 6426 6427
6106 1 6427 6428
6107 1 6428 6429
6108 1 6429 6430
6109 1 6430 6431
6110 1 6431 6432
6111 1 6432 6433
6112 1 6433 6434
6113 1 6434 6435
6114 1 6435 6436
6115 1 6436 6437
6116 1 6437 6438
6117 1 6438 6439
6118 1 6439 6440
6119 1 6441 6442
6120 1 6442 6443
6121 1 6443 6444
6122 1 6444 6445
6123 1 6445 6446
6124 1 6446 6447
6125 1 6447 6448
6126 1 6448 6449
6127 1 6449 6450
6128 1 6450 6451
6129 1 6451 6452
6130 1 6452 6453
6131 1 6453 6454
6132 1 6454 6455
6133 1 6455 6456
6134 1 6456 6457
6135 1 6457 6458
6136 1 6458 6459
6137 1 6459 6460
6138 1 6461 6462
6139 1 6462 6463
6140 1 6463 6464
6141 1 6464 6465
6142 1 6465 6466
6143 1 6466 6467
6144 1 6467 6468
6145 1 6468 6469
6146 1 6469 6470
6147 1 6470 6471
6148 1 6471 6472
6149 1 6472 6473
6150 1 6473 6474
6151 1 6474 6475
6152 1 6475 6476
6153 1 6476 6477
6154 1 6477 6478
6155 1 6478 6479
6156 1 6479 6480
6157 1 6481 6482
6158 1 6482 6483
6159 1 6483 6484
6160 1 6484 6485
6161 1 6485 6486
6162 1 6486 6487
6163 1 6487 6488
6164 1 6488 6489
6165 1 6489 6490
6166 1 6490 6491
6167 1 6491 6492
6168 1 6492 6493
6169 1 6493 6494
6170 1 6494 6495
6171 1 6495 6496
6172 1 6496 6497
6173 1 6497 6498
6174 1 6498 6499
6175 1 6499 6500
6176 1 6501 6502
6177 1 6502 6503
6178 1 6503 6504
6179 1 6504 6505
6180 1 6505 6506
6181 1 6506 6507
6182 1 6507 6508
6183 1 6508 6509
6184 1 6509 6510
6185 1 6510 6511
6186 1 6511 6512
6187 1 6512 6513
6188 1 6513 6514
6189 1 6514 6515
6190 1 6515 6516
6191 1 6516 6517
6192 1 6517 6518
6193 1 6518 6519
6194 1 6519 6520
6195 1 6521 6522
6196 1 6522 6523
6197 1 6523 6524
6198 1 6524 6525
6199 1 6525 6526
6200 1 6526 6527
6201 1 6527 6528
6202 1 6528 6529
6203 1 6529 6530
6204 1 6530 6531
6205 1 6531 6532
6206 1 6532 6533
6207 1 6533 6534
6208 1 6534 6535
6209 1 6535 6536
6210 1 6536 6537
6211 1 6537 6538
6212 1 6538 6539
6213 1 6539 6540
6214 1 6541 6542
6215 1 6542 6543
6216 1 6543 6544
6217 1 6544 6545
6218 1 6545 6546
6219 1 6546 6547
6220 1 6547 6548
6221 1 6548 6549
6222 1 6549 6550
6223 1 6550 6551
6224 1 6551 6552
6225 1 6552 6553
6226 1 6553 6554
6227 1 6554 6555
6228 1 6555 6556
6229 1 6556 6557
6230 1 6557 6558
6231 1 6558 6559
6232 1 6559 6560
6233 1 6561 6562
6234 1 6562 6563
6235 1 6563 6564
6236 1 6564 6565
6237 1 6565 6566
6238 1 6566 6567
6239 1 6567 6568
6240 1 6568 6569
6241 1 6569 6570
6242 1 6570 6571
6243 1 6571 6572
6244 1 6572 6573
6245 1 6573 6574
6246 1 6574 6575
6247 1 6575 6576
6248 1 6576 6577
6249 1 6577 6578
6250 1 6578 6579
6251 1 6579 6580
6252 1 6581 6582
6253 1 6582 6583
6254 1 6583 6584
6255 1 6584 6585
6256 1 6585 6586
6257 1 6586 6587
6258 1 6587 6588
6259 1 6588 6589
6260 1 6589 6590
6261 1 6590 6591
6262 1 6591 6592
6263 1 6592 6593
6264 1 6593 6594
6265 1 6594 6595
6266 1 6595 6596
6267 1 6596 6597
6268 1 6597 6598
6269 1 6598 6599
6270 1 6599 6600
6271 1 6601 6602
6272 1 6602 6603
6273 1 6603 6604
6274 1 6604 6605
6275 1 6605 6606
6276 1 6606 6607
6277 1 6607 6608
6278 1 6608 6609
6279 1 6609 6610
6280 1 6610 6611
6281 1 6611 6612
6282 1 6612 6613
6283 1 6613 6614
6284 1 6614 6615
6285 1 6615 6616
6286 1 6616 6617
6287 1 6617 6618
6288 1 6618 6619
6289 1 6619 6620
6290 1 6621 6622
6291 1 6622 6623
6292 1 6623 6624
6293 1 6624 6625
6294 1 6625 6626
6295 1 6626 6627
6296 1 6627 6628
6297 1 6628 6629
6298 1 6629 6630
6299 1 6630 6631
6300 1 6631 6632
6301 1 6632 6633
6302 1 6633 6634
6303 1 6634 6635
6304 1 6635 6636
6305 1 6636 6637
6306 1 6637 6638
6307 1 6638 6639
6308 1 6639 6640
6309 1 6641 6642
6310 1 6642 6643
6311 1 6643 6644
6312 1 6644 6645
6313 1 6645 6646
6314 1 6646 6647
6315 1 6647 6648
6316 1 6648 6649
6317 1 6649 6650
6318 1 6650 6651
6319 1 6651 6652
6320 1 6652 6653
6321 1 6653 6654
6322 1 6654 6655
6323 1 6655 6656
6324 1 6656 6657
6325 1 6657 6658
6326 1 6658 6659
6327 1 6659 6660
6328 1 6661 6662
6329 1 6662 6663
6330 1 6663 6664
6331 1 6664 6665
6332 1 6665 6666
6333 1 6666 6667
6334 1 6667 6668
6335 1 6668 6669
6336 1 6669 6670
6337 1 6670 6671
6338 1 6671 6672
6339 1 6672 6673
6340 1 6673 6674
6341 1 6674 6675
6342 1 6675 6676
6343 1 6676 6677
6344 1 6677 6678
6345 1 6678 6679
6346 1 6679 6680
6347 1 6681 6682
6348 1 6682 6683
6349 1 6683 6684
6350 1 6684 6685
6351 1 6685 6686
6352 1 6686 6687
6353 1 6687 6688
6354 1 6688 6689
6355 1 6689 6690
6356 1 6690 6691
6357 1 6691 6692
6358 1 6692 6693
6359 1 6693 6694
6360 1 6694 6695
6361 1 6695 6696
6362 1 6696 6697
6363 1 6697 6698
6364 1 6698 6699
6365 1 6699 6700
6366 1 6701 6702
6367 1 6702 6703
6368 1 6703 6704
6369 1 6704 6705
6370 1 6705 6706
6371 1 6706 6707
6372 1 6707 6708
6373 1 6708 6709
6374 1 6709 6710
6375 1 6710 6711
6376 1 6711 6712
6377 1 6712 6713
6378 1 6713 6714
6379 1 6714 6715
6380 1 6715 6716
6381 1 6716 6717
6382 1 6717 6718
6383 1 6718 6719
6384 1 6719 6720
6385 1 6721 6722
6386 1 6722 6723
6387 1 6723 6724
6388 1 6724 6725
6389 1 6725 6726
6390 1 6726 6727
6391 1 6727 6728
6392 1 6728 6729
6393 1 6729 6730
6394 1 6730 6731
6395 1 6731 6732
6396 1 6732 6733
6397 1 6733 6734
6398 1 6734 6735
6399 1 6735 6736
6400 1 6736 6737
6401 1 6737 6738
6402 1 6738 6739
6403 1 6739 6740
6404 1 6741 6742
6405 1 6742 6743
6406 1 6743 6744
6407 1 6744 6745
6408 1 6745 6746
6409 1 6746 6747
6410 1 6747 6748
6411 1 6748 6749
6412 1 6749 6750
6413 1 6750 6751
6414 1 6751 6752
6415 1 6752 6753
6416 1 6753 6754
6417 1 6754 6755
6418 1 6755 6756
6419 1 6756 6757
6420 1 6757 6758
6421 1 6758 6759
6422 1 6759 6760
6423 1 6761 6762
6424 1 6762 6763
6425 1 6763 6764
6426 1 6764 6765
6427 1 6765 6766
6428 1 6766 6767
6429 1 6767 6768
6430 1 6768 6769
6431 1 6769 6770
6432 1 6770 6771
6433 1 6771 6772
6434 1 6772 6773
6435 1 6773 6774
6436 1 6774 6775
6437 1 6775 6776
6438 1 6776 6777
6439 1 6777 6778
6440 1 6778 6779
6441 1 6779 6780
6442 1 6781 6782
6443 1 6782 6783
6444 1 6783 6784
6445 1 6784 6785
6446 1 6785 6786
6447 1 6786 6787
6448 1 6787 6788
6449 1 6788 6789
6450 1 6789 6790
6451 1 6790 6791
6452 1 6791 6792
6453 1 6792 6793
6454 1 6793 6794
6455 1 6794 6795
6456 1 6795 6796
6457 1 6796 6797
6458 1 6797 6798
6459 1 6798 6799
6460 1 6799 6800
6461 1 6801 6802
6462 1 6802 6803
6463 1 6803 6804
6464 1 6804 6805
6465 1 6805 6806
6466 1 6806 6807
6467 1 6807 6808
6468 1 6808 6809
6469 1 6809 6810
6470 1 6810 6811
6471 1 6811 6812
6472 1 6812 6813
6473 1 6813 6814
6474 1 6814 6815
6475 1 6815 6816
6476 1 6816 6817
6477 1 6817 6818
6478 1 6818 6819
6479 1 6819 6820
6480 1 6821 6822
6481 1 6822 6823
6482 1 6823 6824
6483 1 6824 6825
6484 1 6825 6826
6485 1 6826 6827
6486 1 6827 6828
6487 1 6828 6829
6488 1 6829 6830
6489 1 6830 6831
6490 1 6831 6832
6491 1 6832 6833
6492 1 6833 6834
6493 1 6834 6835
6494 1 6835 6836
6495 1 6836 6837
6496 1 6837 6838
6497 1 6838 6839
6498 1 6839 6840
6499 1 6841 6842
6500 1 6842 6843
6501 1 6843 6844
6502 1 6844 6845
6503 1 6845 6846
6504 1 6846 6847
6505 1 6847 6848
6506 1 6848 6849
6507 1 6849 6850
6508 1 6850 6851
6509 1 6851 6852
6510 1 6852 6853
6511 1 6853 6854
6512 1 6854 6855
6513 1 6855 6856
6514 1 6856 6857
6515 1 6857 6858
6516 1 6858 6859
6517 1 6859 6860
6518 1 6861 6862
6519 1 6862 6863
6520 1 6863 6864
6521 1 6864 6865
6522 1 6865 6866
6523 1 6866 6867
6524 1 6867 6868
6525 1 6868 6869
6526 1 6869 6870
6527 1 6870 6871
6528 1 6871 6872
6529 1 6872 6873
6530 1 6873 6874
6531 1 6874 6875
6532 1 6875 6876
6533 1 6876 6877
6534 1 6877 6878
6535 1 6878 6879
6536 1 6879 6880
6537 1 6881 6882
6538 1 6882 6883
6539 1 6883 6884
6540 1 6884 6885
6541 1 6885 6886
6542 1 6886 6887
6543 1 6887 6888
6544 1 6888 6889
6545 1 6889 6890
6546 1 6890 6891
6547 1 6891 6892
6548 1 6892 6893
6549 1 6893 6894
6550 1 6894 6895
6551 1 6895 6896
6552 1 6896 6897
6553 1 6897 6898
6554 1 6898 6899
6555 1 6899 6900
6556 1 6901 6902
6557 1 6902 6903
6558 1 6903 6904
6559 1 6904 6905
6560 1 6905 6906
6561 1 6906 6907
6562 1 6907 6908
6563 1 6908 6909
6564 1 6909 6910
6565 1 6910 6911
6566 1 6911 6912
6567 1 6912 6913
6568 1 6913 6914
6569 1 6914 6915
6570 1 6915 6916
6571 1 6916 6917
6572 1 6917 6918
6573 1 6918 6919
6574 1 6919 6920
6575 1 6921 6922
6576 1 6922 6923
6577 1 6923 6924
6578 1 6924 6925
6579 1 6925 6926
6580 1 6926 6927
6581 1 6927 6928
6582 1 6928 6929
6583 1 6929 6930
6584 1 6930 6931
6585 1 6931 6932
6586 1 6932 6933
6587 1 6933 6934
6588 1 6934 6935
6589 1 6935 6936
6590 1 6936 6937
6591 1 6937 6938
6592 1 6938 6939
6593 1 6939 6940
6594 1 6941 6942
6595 1 6942 6943
6596 1 6943 6944
6597 1 6944 6945
6598 1 6945 6946
6599 1 6946 6947
6600 1 6947 6948
6601 1 6948 6949
6602 1 6949 6950
6603 1 6950 6951
6604 1 6951 6952
6605 1 6952 6953
6606 1 6953 6954
6607 1 6954 6955
6608 1 6955 6956
6609 1 6956 6957
6610 1 6957 6958
6611 1 6958 6959
6612 1 6959 6960
6613 1 6961 6962
6614 1 6962 6963
6615 1 6963 6964
6616 1 6964 6965
6617 1 6965 6966
6618 1 6966 6967
6619 1 6967 6968
6620 1 6968 6969
6621 1 6969 6970
6622 1 6970 6971
6623 1 6971 6972
6624 1 6972 6973
6625 1 6973 6974
6626 1 6974 6975
6627 1 6975 6976
6628 1 6976 6977
6629 1 6977 6978
6630 1 6978 6979
6631 1 6979 6980
6632 1 6981 6982
6633 1 6982 6983
6634 1 6983 6984
6635 1 6984 6985
6636 1 6985 6986
6637 1 6986 6987
6638 1 6987 6988
6639 1 6988 6989
6640 1 6989 6990
6641 1 6990 6991
6642 1 6991 6992
6643 1 6992 6993
6644 1 6993 6994
6645 1 6994 6995
6646 1 6995 6996
6647 1 6996 6997
6648 1 6997 6998
6649 1 6998 6999
6650 1 6999 7000
6651 1 7001 7002
6652 1 7002 7003
6653 1 7003 7004
6654 1 7004 7005
6655 1 7005 7006
6656 1 7006 7007
6657 1 7007 7008
6658 1 7008 7009
6659 1 7009 7010
6660 1 7010 7011
6661 1 7011 7012
6662 1 7012 7013
6663 1 7013 7014
6664 1 7014 7015
6665 1 7015 7016
6666 1 7016 7017
6667 1 7017 7018
6668 1 7018 7019
6669 1 7019 7020
6670 1 7021 7022
6671 1 7022 7023
6672 1 7023 7024
6673 1 7024 7025
6674 1 7025 7026
6675 1 7026 7027
6676 1 7027 7028
6677 1 7028 7029
6678 1 7029 7030
6679 1 7030 7031
6680 1 7031 7032
6681 1 7032 7033
6682 1 7033 7034
6683 1 7034 7035
6684 1 7035 7036
6685 1 7036 7037
6686 1 7037 7038
6687 1 7038 7039
6688 1 7039 7040
6689 1 7041 7042
6690 1 7042 7043
6691 1 7043 7044
6692 1 7044 7045
6693 1 7045 7046
6694 1 7046 7047
6695 1 7047 7048
6696 1 7048 7049
6697 1 7049 7050
6698 1 7050 7051
6699 1 7051 7052
6700 1 7052 7053
6701 1 7053 7054
6702 1 7054 7055
6703 1 7055 7056
6704 1 7056 7057
6705 1 7057 7058
6706 1 7058 7059
6707 1 7059 7060
6708 1 7061 7062
6709 1 7062 7063
6710 1 7063 7064
6711 1 7064 7065
6712 1 7065 7066
6713 1 7066 7067
6714 1 7067 7068
6715 1 7068 7069
6716 1 7069 7070
6717 1 7070 7071
6718 1 7071 7072
6719 1 7072 7073
6720 1 7073 7074
6721 1 7074 7075
6722 1 7075 7076
6723 1 7076 7077
6724 1 7077 7078
6725 1 7078 7079
6726 1 7079 7080
6727 1 7081 7082
6728 1 7082 7083
6729 1 7083 7084
6730 1 7084 7085
6731 1 7085 7086
6732 1 7086 7087
6733 1 7087 7088
6734 1 7088 7089
6735 1 7089 7090
6736 1 7090 7091
6737 1 7091 7092
6738 1 7092 7093
6739 1 7093 7094
6740 1 7094 7095
6741 1 7095 7096
6742 1 7096 7097
6743 1 7097 7098
6744 1 7098 7099
6745 1 7099 7100
6746 1 7101 7102
6747 1 7102 7103
6748 1 7103 7104
6749 1 7104 7105
6750 1 7105 7106
6751 1 7106 7107
6752 1 7107 7108
6753 1 7108 7109
6754 1 7109 7110
6755 1 7110 7111
6756 1 7111 7112
6757 1 7112 7113
6758 1 7113 7114
6759 1 7114 7115
6760 1 7115 7116
6761 1 7116 7117
6762 1 7117 7118
6763 1 7118 7119
6764 1 7119 7120
6765 1 7121 7122
6766 1 7122 7123
6767 1 7123 7124
6768 1 7124 7125
6769 1 7125 7126
6770 1 7126 7127
6771 1 7127 7128
6772 1 7128 7129
6773 1 7129 7130
6774 1 7130 7131
6775 1 7131 7132
6776 1 7132 7133
6777 1 7133 7134
6778 1 7134 7135
6779 1 7135 7136
6780 1 7136 7137
6781 1 7137 7138
6782 1 7138 7139
6783 1 7139 7140
6784 1 7141 7142
6785 1 7142 7143
6786 1 7143 7144
6787 1 7144 7145
6788 1 7145 7146
6789 1 7146 7147
6790 1 7147 7148
6791 1 7148 7149
6792 1 7149 7150
6793 1 7150 7151
6794 1 7151 7152
6795 1 7152 7153
6796 1 7153 7154
6797 1 7154 7155
6798 1 7155 7156
6799 1 7156 7157
6800 1 7157 7158
6801 1 7158 7159
6802 1 7159 7160
6803 1 7161 7162
6804 1 7162 7163
6805 1 7163 7164
6806 1 7164 7165
6807 1 7165 7166
6808 1 7166 7167
6809 1 7167 7168
6810 1 7168 7169
6811 1 7169 7170
6812 1 7170 7171
6813 1 7171 7172
6814 1 7172 7173
6815 1 7173 7174
6816 1 7174 7175
6817 1 7175 7176
6818 1 7176 7177
6819 1 7177 7178
6820 1 7178 7179
6821 1 7179 7180
6822 1 7181 7182
6823 1 7182 7183
6824 1 7183 7184
6825 1 7184 7185
6826 1 7185 7186
6827 1 7186 7187
6828 1 7187 7188
6829 1 7188 7189
6830 1 7189 7190
6831 1 7190 7191
6832 1 7191 7192
6833 1 7192 7193
6834 1 7193 7194
6835 1 7194 7195
6836 1 7195 7196
6837 1 7196 7197
6838 1 7197 7198
6839 1 7198 7199
6840 1 7199 7200
6841 1 7201 7202
6842 1 7202 7203
6843 1 7203 7204
6844 1 7204 7205
6845 1 7205 7206
6846 1 7206 7207
6847 1 7207 7208
6848 1 7208 7209
6849 1 7209 7210
6850 1 7210 7211
6851 1 7211 7212
6852 1 7212 7213
6853 1 7213 7214
6854 1 7214 7215
6855 1 7215 7216
6856 1 7216 7217
6857 1 7217 7218
6858 1 7218 7219
6859 1 7219 7220
6860 1 7221 7222
6861 1 7222 7223
6862 1 7223 7224
6863 1 7224 7225
6864 1 7225 7226
6865 1 7226 7227
6866 1 7227 7228
6867 1 7228 7229
6868 1 7229 7230
6869 1 7230 7231
6870 1 7231 7232
6871 1 7232 7233
6872 1 7233 7234
6873 1 7234 7235
6874 1 7235 7236
6875 1 7236 7237
6876 1 7237 7238
6877 1 7238 7239
6878 1 7239 7240
6879 1 7241 7242
6880 1 7242 7243
6881 1 7243 7244
6882 1 7244 7245
6883 1 7245 7246
6884 1 7246 7247
6885 1 7247 7248
6886 1 7248 7249
6887 1 7249 7250
6888 1 7250 7251
6889 1 7251 7252
6890 1 7252 7253
6891 1 7253 7254
6892 1 7254 7255
6893 1 7255 7256
6894 1 7256 7257
6895 1 7257 7258
6896 1 7258 7259
6897 1 7259 7260
6898 1 7261 7262
6899 1 7262 7263
6900 1 7263 7264
6901 1 7264 7265
6902 1 7265 7266
6903 1 7266 7267
6904 1 7267 7268
6905 1 7268 7269
6906 1 7269 7270
6907 1 7270 7271
6908 1 7271 7272
6909 1 7272 7273
6910 1 7273 7274
6911 1 7274 7275
6912 1 7275 7276
6913 1 7276 7277
6914 1 7277 7278
6915 1 7278 7279
6916 1 7279 7280
6917 1 7281 7282
6918 1 7282 7283
6919 1 7283 7284
6920 1 7284 7285
6921 1 7285 7286
6922 1 7286 7287
6923 1 7287 7288
6924 1 7288 7289
6925 1 7289 7290
6926 1 7290 7291
6927 1 7291 7292
6928 1 7292 7293
6929 1 7293 7294
6930 1 7294 7295
6931 1 7295 7296
6932 1 7296 7297
6933 1 7297 7298
6934 1 7298 7299
6935 1 7299 7300
6936 1 7301 7302
6937 1 7302 7303
6938 1 7303 7304
6939 1 7304 7305
6940 1 7305 7306
6941 1 7306 7307
6942 1 7307 7308
6943 1 7308 7309
6944 1 7309 7310
6945 1 7310 7311
6946 1 7311 7312
6947 1 7312 7313
6948 1 7313 7314
6949 1 7314 7315
6950 1 7315 7316
6951 1 7316 7317
6952 1 7317 7318
6953 1 7318 7319
6954 1 7319 7320
6955 1 7321 7322
6956 1 7322 7323
6957 1 7323 7324
6958 1 7324 7325
6959 1 7325 7326
6960 1 7326 7327
6961 1 7327 7328
6962 1 7328 7329
6963 1 7329 7330
6964 1 7330 7331
6965 1 7331 7332
6966 1 7332 7333
6967 1 7333 7334
6968 1 7334 7335
6969 1 7335 7336
6970 1 7336 7337
6971 1 7337 7338
6972 1 7338 7339
6973 1 7339 7340
6974 1 7341 7342
6975 1 7342 7343
6976 1 7343 7344
6977 1 7344 7345
6978 1 7345 7346
6979 1 7346 7347
6980 1 7347 7348
6981 1 7348 7349
6982 1 7349 7350
6983 1 7350 7351
6984 1 7351 7352
6985 1 7352 7353
6986 1 7353 7354
6987 1 7354 7355
6988 1 7355 7356
6989 1 7356 7357
6990 1 7357 7358
6991 1 7358 7359
6992 1 7359 7360
6993 1 7361 7362
6994 1 7362 7363
6995 1 7363 7364
6996 1 7364 7365
6997 1 7365 7366
6998 1 7366 7367
6999 1 7367 7368
7000 1 7368 7369
7001 1 7369 7370
7002 1 7370 7371
7003 1 7371 7372
7004 1 7372 7373
7005 1 7373 7374
7006 1 7374 7375
7007 1 7375 7376
7008 1 7376 7377
7009 1 7377 7378
7010 1 7378 7379
7011 1 7379 7380
7012 1 7381 7382
7013 1 7382 7383
7014 1 7383 7384
7015 1 7384 7385
7016 1 7385 7386
7017 1 7386 7387
7018 1 7387 7388
7019 1 7388 7389
7020 1 7389 7390
7021 1 7390 7391
7022 1 7391 7392
7023 1 7392 7393
7024 1 7393 7394
7025 1 7394 7395
7026 1 7395 7396
7027 1 7396 7397
7028 1 7397 7398
7029 1 7398 7399
7030 1 7399 7400
7031 1 7401 7402
7032 1 7402 7403
7033 1 7403 7404
7034 1 7404 7405
7035 1 7405 7406
7036 1 7406 7407
7037 1 7407 7408
7038 1 7408 7409
7039 1 7409 7410
7040 1 7410 7411
7041 1 7411 7412
7042 1 7412 7413
7043 1 7413 7414
7044 1 7414 7415
7045 1 7415 7416
7046 1 7416 7417
7047 1 7417 7418
7048 1 7418 7419
7049 1 7419 7420
7050 1 7421 7422
7051 1 7422 7423
7052 1 7423 7424
7053 1 7424 7425
7054 1 7425 7426
7055 1 7426 7427
7056 1 7427 7428
7057 1 7428 7429
7058 1 7429 7430
7059 1 7430 7431
7060 1 7431 7432
7061 1 7432 7433
7062 1 7433 7434
7063 1 7434 7435
7064 1 7435 7436
7065 1 7436 7437
7066 1 7437 7438
7067 1 7438 7439
7068 1 7439 7440
7069 1 7441 7442
7070 1 7442 7443
7071 1 7443 7444
7072 1 7444 7445
7073 1 7445 7446
7074 1 7446 7447
7075 1 7447 7448
7076 1 7448 7449
7077 1 7449 7450
7078 1 7450 7451
7079 1 7451 7452
7080 1 7452 7453
7081 1 7453 7454
7082 1 7454 7455
7083 1 7455 7456
7084 1 7456 7457
7085 1 7457 7458
7086 1 7458 7459
7087 1 7459 7460
7088 1 7461 7462
7089 1 7462 7463
7090 1 7463 7464
7091 1 7464 7465
7092 1 7465 7466
7093 1 7466 7467
7094 1 7467 7468
7095 1 7468 7469
7096 1 7469 7470
7097 1 7470 7471
7098 1 7471 7472
7099 1 7472 7473
7100 1 7473 7474
7101 1 7474 7475
7102 1 7475 7476
7103 1 7476 7477
7104 1 7477 7478
7105 1 7478 7479
7106 1 7479 7480
7107 1 7481 7482
7108 1 7482 7483
7109 1 7483 7484
7110 1 7484 7485
7111 1 7485 7486
7112 1 7486 7487
7113 1 7487 7488
7114 1 7488 7489
7115 1 7489 7490
7116 1 7490 7491
7117 1 7491 7492
7118 1 7492 7493
7119 1 7493 7494
7120 1 7494 7495
7121 1 7495 7496
7122 1 7496 7497
7123 1 7497 7498
7124 1 7498 7499
7125 1 7499 7500
7126 1 7501 7502
7127 1 7502 7503
7128 1 7503 7504
7129 1 7504 7505
7130 1 7505 7506
7131 1 7506 7507
7132 1 7507 7508
7133 1 7508 7509
7134 1 7509 7510
7135 1 7510 7511
7136 1 7511 7512
7137 1 7512 7513
7138 1 7513 7514
7139 1 7514 7515
7140 1 7515 7516
7141 1 7516 7517
7142 1 7517 7518
7143 1 7518 7519
7144 1 7519 7520
7145 1 7521 7522
7146 1 7522 7523
7147 1 7523 7524
7148 1 7524 7525
7149 1 7525 7526
7150 1 7526 7527
7151 1 7527 7528
7152 1 7528 7529
7153 1 7529 7530
7154 1 7530 7531
7155 1 7531 7532
7156 1 7532 7533
7157 1 7533 7534
7158 1 7534 7535
7159 1 7535 7536
7160 1 7536 7537
7161 1 7537 7538
7162 1 7538 7539
7163 1 7539 7540
7164 1 7541 7542
7165 1 7542 7543
7166 1 7543 7544
7167 1 7544 7545
7168 1 7545 7546
7169 1 7546 7547
7170 1 7547 7548
7171 1 7548 7549
7172 1 7549 7550
7173 1 7550 7551
7174 1 7551 7552
7175 1 7552 7553
7176 1 7553 7554
7177 1 7554 7555
7178 1 7555 7556
7179 1 7556 7557
7180 1 7557 7558
7181 1 7558 7559
7182 1 7559 7560
7183 1 7561 7562
7184 1 7562 7563
7185 1 7563 7564
7186 1 7564 7565
7187 1 7565 7566
7188 1 7566 7567
7189 1 7567 7568
7190 1 7568 7569
7191 1 7569 7570
7192 1 7570 7571
7193 1 7571 7572
7194 1 7572 7573
7195 1 7573 7574
7196 1 7574 7575
7197 1 7575 7576
7198 1 7576 7577
7199 1 7577 7578
7200 1 7578 7579
7201 1 7579 7580
7202 1 7581 7582
7203 1 7582 7583
7204 1 7583 7584
7205 1 7584 7585
7206 1 7585 7586
7207 1 7586 7587
7208 1 7587 7588
7209 1 7588 7589
7210 1 7589 7590
7211 1 7590 7591
7212 1 7591 7592
7213 1 7592 7593
7214 1 7593 7594
7215 1 7594 7595
7216 1 7595 7596
7217 1 7596 7597
7218 1 7597 7598
7219 1 7598 7599
7220 1 7599 7600
7221 1 7601 7602
7222 1 7602 7603
7223 1 7603 7604
7224 1 7604 7605
7225 1 7605 7606
7226 1 7606 7607
7227 1 7607 7608
7228 1 7608 7609
7229 1 7609 7610
7230 1 7610 7611
7231 1 7611 7612
7232 1 7612 7613
7233 1 7613 7614
7234 1 7614 7615
7235 1 7615 7616
7236 1 7616 7617
7237 1 7617 7618
7238 1 7618 7619
7239 1 7619 7620
7240 1 7621 7622
7241 1 7622 7623
7242 1 7623 7624
7243 1 7624 7625
7244 1 7625 7626
7245 1 7626 7627
7246 1 7627 7628
7247 1 7628 7629
7248 1 7629 7630
7249 1 7630 7631
7250 1 7631 7632
7251 1 7632 7633
7252 1 7633 7634
7253 1 7634 7635
7254 1 7635 7636
7255 1 7636 7637
7256 1 7637 7638
7257 1 7638 7639
7258 1 7639 7640
7259 1 7641 7642
7260 1 7642 7643
7261 1 7643 7644
7262 1 7644 7645
7263 1 7645 7646
7264 1 7646 7647
7265 1 7647 7648
7266 1 7648 7649
7267 1 7649 7650
7268 1 7650 7651
7269 1 7651 7652
7270 1 7652 7653
7271 1 7653 7654
7272 1 7654 7655
7273 1 7655 7656
7274 1 7656 7657
7275 1 7657 7658
7276 1 7658 7659
7277 1 7659 7660
7278 1 7661 7662
7279 1 7662 7663
7280 1 7663 7664
7281 1 7664 7665
7282 1 7665 7666
7283 1 7666 7667
7284 1 7667 7668
7285 1 7668 7669
7286 1 7669 7670
7287 1 7670 7671
7288 1 7671 7672
7289 1 7672 7673
7290 1 7673 7674
7291 1 7674 7675
7292 1 7675 7676
7293 1 7676 7677
7294 1 7677 7678
7295 1 7678 7679
7296 1 7679 7680
7297 1 7681 7682
7298 1 7682 7683
7299 1 7683 7684
7300 1 7684 7685
7301 1 7685 7686
7302 1 7686 7687
7303 1 7687 7688
7304 1 7688 7689
7305 1 7689 7690
7306 1 7690 7691
7307 1 7691 7692
7308 1 7692 7693
7309 1 7693 7694
7310 1 7694 7695
7311 1 7695 7696
7312 1 7696 7697
7313 1 7697 7698
7314 1 7698 7699
7315 1 7699 7700
7316 1 7701 7702
7317 1 7702 7703
7318 1 7703 7704
7319 1 7704 7705
7320 1 7705 7706
7321 1 7706 7707
7322 1 7707 7708
7323 1 7708 7709
7324 1 7709 7710
7325 1 7710 7711
7326 1 7711 7712
7327 1 7712 7713
7328 1 7713 7714
7329 1 7714 7715
7330 1 7715 7716
7331 1 7716 7717
7332 1 7717 7718
7333 1 7718 7719
7334 1 7719 7720
7335 1 7721 7722
7336 1 7722 7723
7337 1 7723 7724
7338 1 7724 7725
7339 1 7725 7726
7340 1 7726 7727
7341 1 7727 7728
7342 1 7728 7729
7343 1 7729 7730
7344 1 7730 7731
7345 1 7731 7732
7346 1 7732 7733
7347 1 7733 7734
7348 1 7734 7735
7349 1 7735 7736
7350 1 7736 7737
7351 1 7737 7738
7352 1 7738 7739
7353 1 7739 7740
7354 1 7741 7742
7355 1 7742 7743
7356 1 7743 7744
7357 1 7744 7745
7358 1 7745 7746
7359 1 7746 7747
7360 1 7747 7748
7361 1 7748 7749
7362 1 7749 7750
7363 1 7750 7751
7364 1 7751 7752
7365 1 7752 7753
7366 1 7753 7754
7367 1 7754 7755
7368 1 7755 7756
7369 1 7756 7757
7370 1 7757 7758
7371 1 7758 7759
7372 1 7759 7760
7373 1 7761 7762
7374 1 7762 7763
7375 1 7763 7764
7376 1 7764 7765
7377 1 7765 7766
7378 1 7766 7767
7379 1 7767 7768
7380 1 7768 7769
7381 1 7769 7770
7382 1 7770 7771
7383 1 7771 7772
7384 1 7772 7773
7385 1 7773 7774
7386 1 7774 7775
7387 1 7775 7776
7388 1 7776 7777
7389 1 7777 7778
7390 1 7778 7779
7391 1 7779 7780
7392 1 7781 7782
7393 1 7782 7783
7394 1 7783 7784
7395 1 7784 7785
7396 1 7785 7786
7397 1 7786 7787
7398 1 7787 7788
7399 1 7788 7789
7400 1 7789 7790
7401 1 7790 7791
7402 1 7791 7792
7403 1 7792 7793
7404 1 7793 7794
7405 1 7794 7795
7406 1 7795 7796
7407 1 7796 7797
7408 1 7797 7798
7409 1 7798 7799
7410 1 7799 7800
7411 1 7801 7802
7412 1 7802 7803
7413 1 7803 7804
7414 1 7804 7805
7415 1 7805 7806
7416 1 7806 7807
7417 1 7807 7808
7418 1 7808 7809
7419 1 7809 7810
7420 1 7810 7811
7421 1 7811 7812
7422 1 7812 7813
7423 1 7813 7814
7424 1 7814 7815
7425 1 7815 7816
7426 1 7816 7817
7427 1 7817 7818
7428 1 7818 7819
7429 1 7819 7820
7430 1 7821 7822
7431 1 7822 7823
7432 1 7823 7824
7433 1 7824 7825
7434 1 7825 7826
7435 1 7826 7827
7436 1 7827 7828
7437 1 7828 7829
7438 1 7829 7830
7439 1 7830 7831
7440 1 7831 7832
7441 1 7832 7833
7442 1 7833 7834
7443 1 7834 7835
7444 1 7835 7836
7445 1 7836 7837
7446 1 7837 7838
7447 1 7838 7839
7448 1 7839 7840
7449 1 7841 7842
7450 1 7842 7843
7451 1 7843 7844
7452 1 7844 7845
7453 1 7845 7846
7454 1 7846 7847
7455 1 7847 7848
7456 1 7848 7849
7457 1 7849 7850
7458 1 7850 7851
7459 1 7851 7852
7460 1 7852 7853
7461 1 7853 7854
7462 1 7854 7855
7463 1 7855 7856
7464 1 7856 7857
7465 1 7857 7858
7466 1 7858 7859
7467 1 7859 7860
7468 1 7861 7862
7469 1 7862 7863
7470 1 7863 7864
7471 1 7864 7865
7472 1 7865 7866
7473 1 7866 7867
7474 1 7867 7868
7475 1 7868 7869
7476 1 7869 7870
7477 1 7870 7871
7478 1 7871 7872
7479 1 7872 7873
7480 1 7873 7874
7481 1 7874 7875
7482 1 7875 7876
7483 1 7876 7877
7484 1 7877 7878
7485 1 7878 7879
7486 1 7879 7880
7487 1 7881 7882
7488 1 7882 7883
7489 1 7883 7884
7490 1 7884 7885
7491 1 7885 7886
7492 1 7886 7887
7493 1 7887 7888
7494 1 7888 7889
7495 1 7889 7890
7496 1 7890 7891
7497 1 7891 7892
7498 1 7892 7893
7499 1 7893 7894
7500 1 7894 7895
7501 1 7895 7896
7502 1 7896 7897
7503 1 7897 7898
7504 1 7898 7899
7505 1 7899 7900
7506 1 7901 7902
7507 1 7902 7903
7508 1 7903 7904
7509 1 7904 7905
7510 1 7905 7906
7511 1 7906 7907
7512 1 7907 7908
7513 1 7908 7909
7514 1 7909 7910
7515 1 7910 7911
7516 1 7911 7912
7517 1 7912 7913
7518 1 7913 7914
7519 1 7914 7915
7520 1 7915 7916
7521 1 7916 7917
7522 1 7917 7918
7523 1 7918 7919
7524 1 7919 7920
7525 1 7921 7922
7526 1 7922 7923
7527 1 7923 7924
7528 1 7924 7925
7529 1 7925 7926
7530 1 7926 7927
7531 1 7927 7928
7532 1 7928 7929
7533 1 7929 7930
7534 1 7930 7931
7535 1 7931 7932
7536 1 7932 7933
7537 1 7933 7934
7538 1 7934 7935
7539 1 7935 7936
7540 1 7936 7937
7541 1 7937 7938
7542 1 7938 7939
7543 1 7939 7940
7544 1 7941 7942
7545 1 7942 7943
7546 1 7943 7944
7547 1 7944 7945
7548 1 7945 7946
7549 1 7946 7947
7550 1 7947 7948
7551 1 7948 7949
7552 1 7949 7950
7553 1 7950 7951
7554 1 7951 7952
7555 1 7952 7953
7556 1 7953 7954
7557 1 7954 7955
7558 1 7955 7956
7559 1 7956 7957
7560 1 7957 7958
7561 1 7958 7959
7562 1 7959 7960
7563 1 7961 7962
7564 1 7962 7963
7565 1 7963 7964
7566 1 7964 7965
7567 1 7965 7966
7568 1 7966 7967
7569 1 7967 7968
7570 1 7968 7969
7571 1 7969 7970
7572 1 7970 7971
7573 1 7971 7972
7574 1 7972 7973
7575 1 7973 7974
7576 1 7974 7975
7577 1 7975 7976
7578 1 7976 7977
7579 1 7977 7978
7580 1 7978 7979
7581 1 7979 7980
7582 1 7981 7982
7583 1 7982 7983
7584 1 7983 7984
7585 1 7984 7985
7586 1 7985 7986
7587 1 7986 7987
7588 1 7987 7988
7589 1 7988 7989
7590 1 7989 7990
7591 1 7990 7991
7592 1 7991 7992
7593 1 7992 7993
7594 1 7993 7994
7595 1 7994 7995
7596 1 7995 7996
7597 1 7996 7997
7598 1 7997 7998
7599 1 7998 7999
7600 1 7999 8000
7601 1 8001 8002
7602 1 8002 8003
7603 1 8003 8004
7604 1 8004 8005
7605 1 8005 8006
7606 1 8006 8007
7607 1 8007 8008
7608 1 8008 8009
7609 1 8009 8010
7610 1 8010 8011
7611 1 8011 8012
7612 1 8012 8013
7613 1 8013 8014
7614 1 8014 8015
7615 1 8015 8016
7616 1 8016 8017
7617 1 8017 8018
7618 1 8018 8019
7619 1 8019 8020
7620 1 8021 8022
7621 1 8022 8023
7622 1 8023 8024
7623 1 8024 8025
7624 1 8025 8026
7625 1 8026 8027
7626 1 8027 8028
7627 1 8028 8029
7628 1 8029 8030
7629 1 8030 8031
7630 1 8031 8032
7631 1 8032 8033
7632 1 8033 8034
7633 1 8034 8035
7634 1 8035 8036
7635 1 8036 8037
7636 1 8037 8038
7637 1 8038 8039
7638 1 8039 8040
7639 1 8041 8042
7640 1 8042 8043
7641 1 8043 8044
7642 1 8044 8045
7643 1 8045 8046
7644 1 8046 8047
7645 1 8047 8048
7646 1 8048 8049
7647 1 8049 8050
7648 1 8050 8051
7649 1 8051 8052
7650 1 8052 8053
7651 1 8053 8054
7652 1 8054 8055
7653 1 8055 8056
7654 1 8056 8057
7655 1 8057 8058
7656 1 8058 8059
7657 1 8059 8060
7658 1 8061 8062
7659 1 8062 8063
7660 1 8063 8064
7661 1 8064 8065
7662 1 8065 8066
7663 1 8066 8067
7664 1 8067 8068
7665 1 8068 8069
7666 1 8069 8070
7667 1 8070 8071
7668 1 8071 8072
7669 1 8072 8073
7670 1 8073 8074
7671 1 8074 8075
7672 1 8075 8076
7673 1 8076 8077
7674 1 8077 8078
7675 1 8078 8079
7676 1 8079 8080
7677 1 8081 8082
7678 1 8082 8083
7679 1 8083 8084
7680 1 8084 8085
7681 1 8085 8086
7682 1 8086 8087
7683 1 8087 8088
7684 1 8088 8089
7685 1 8089 8090
7686 1 8090 8091
7687 1 8091 8092
7688 1 8092 8093
7689 1 8093 8094
7690 1 8094 8095
7691 1 8095 8096
7692 1 8096 8097
7693 1 8097 8098
7694 1 8098 8099
7695 1 8099 8100
7696 1 8101 8102
7697 1 8102 8103
7698 1 8103 8104
7699 1 8104 8105
7700 1 8105 8106
7701 1 8106 8107
7702 1 8107 8108
7703 1 8108 8109
7704 1 8109 8110
7705 1 8110 8111
7706 1 8111 8112
7707 1 8112 8113
7708 1 8113 8114
7709 1 8114 8115
7710 1 8115 8116
7711 1 8116 8117
7712 1 8117 8118
7713 1 8118 8119
7714 1 8119 8120
7715 1 8121 8122
7716 1 8122 8123
7717 1 8123 8124
7718 1 8124 8125
7719 1 8125 8126
7720 1 8126 8127
7721 1 8127 8128
7722 1 8128 8129
7723 1 8129 8130
7724 1 8130 8131
7725 1 8131 8132
7726 1 8132 8133
7727 1 8133 8134
7728 1 8134 8135
7729 1 8135 8136
7730 1 8136 8137
7731 1 8137 8138
7732 1 8138 8139
7733 1 8139 8140
7734 1 8141 8142
7735 1 8142 8143
7736 1 8143 8144
7737 1 8144 8145
7738 1 8145 8146
7739 1 8146 8147
7740 1 8147 8148
7741 1 8148 8149
7742 1 8149 8150
7743 1 8150 8151
7744 1 8151 8152
7745 1 8152 8153
7746 1 8153 8154
7747 1 8154 8155
7748 1 8155 8156
7749 1 8156 8157
7750 1 8157 8158
7751 1 8158 8159
7752 1 8159 8160
7753 1 8161 8162
7754 1 8162 8163
7755 1 8163 8164
7756 1 8164 8165
7757 1 8165 8166
7758 1 8166 8167
7759 1 8167 8168
7760 1 8168 8169
7761 1 8169 8170
7762 1 8170 8171
7763 1 8171 8172
7764 1 8172 8173
7765 1 8173 8174
7766 1 8174 8175
7767 1 8175 8176
7768 1 8176 8177
7769 1 8177 8178
7770 1 8178 8179
7771 1 8179 8180
7772 1 8181 8182
7773 1 8182 8183
7774 1 8183 8184
7775 1 8184 8185
7776 1 8185 8186
7777 1 8186 8187
7778 1 8187 8188
7779 1 8188 8189
7780 1 8189 8190
7781 1 8190 8191
7782 1 8191 8192
7783 1 8192 8193
7784 1 8193 8194
7785 1 8194 8195
7786 1 8195 8196
7787 1 8196 8197
7788 1 8197 8198
7789 1 8198 8199
7790 1 8199 8200
7791 1 8201 8202
7792 1 8202 8203
7793 1 8203 8204
7794 1 8204 8205
7795 1 8205 8206
7796 1 8206 8207
7797 1 8207 8208
7798 1 8208 8209
7799 1 8209 8210
7800 1 8210 8211
7801 1 8211 8212
7802 1 8212 8213
7803 1 8213 8214
7804 1 8214 8215
7805 1 8215 8216
7806 1 8216 8217
7807 1 8217 8218
7808 1 8218 8219
7809 1 8219 8220
7810 1 8221 8222
7811 1 8222 8223
7812 1 8223 8224
7813 1 8224 8225
7814 1 8225 8226
7815 1 8226 8227
7816 1 8227 8228
7817 1 8228 8229
7818 1 8229 8230
7819 1 8230 8231
7820 1 8231 8232
7821 1 8232 8233
7822 1 8233 8234
7823 1 8234 8235
7824 1 8235 8236
7825 1 8236 8237
7826 1 8237 8238
7827 1 8238 8239
7828 1 8239 8240
7829 1 8241 8242
7830 1 8242 8243
7831 1 8243 8244
7832 1 8244 8245
7833 1 8245 8246
7834 1 8246 8247
7835 1 8247 8248
7836 1 8248 8249
7837 1 8249 8250
7838 1 8250 8251
7839 1 8251 8252
7840 1 8252 8253
7841 1 8253 8254
7842 1 8254 8255
7843 1 8255 8256
7844 1 8256 8257
7845 1 8257 8258
7846 1 8258 8259
7847 1 8259 8260
7848 1 8261 8262
7849 1 8262 8263
7850 1 8263 8264
7851 1 8264 8265
7852 1 8265 8266
7853 1 8266 8267
7854 1 8267 8268
7855 1 8268 8269
7856 1 8269 8270
7857 1 8270 8271
7858 1 8271 8272
7859 1 8272 8273
7860 1 8273 8274
7861 1 8274 8275
7862 1 8275 8276
7863 1 8276 8277
7864 1 8277 8278
7865 1 8278 8279
7866 1 8279 8280
7867 1 8281 8282
7868 1 8282 8283
7869 1 8283 8284
7870 1 8284 8285
7871 1 8285 8286
7872 1 8286 8287
7873 1 8287 8288
7874 1 8288 8289
7875 1 8289 8290
7876 1 8290 8291
7877 1 8291 8292
7878 1 8292 8293
7879 1 8293 8294
7880 1 8294 8295
7881 1 8295 8296
7882 1 8296 8297
7883 1 8297 8298
7884 1 8298 8299
7885 1 8299 8300
7886 1 8301 8302
7887 1 8302 8303
7888 1 8303 8304
7889 1 8304 8305
7890 1 8305 8306
7891 1 8306 8307
7892 1 8307 8308
7893 1 8308 8309
7894 1 8309 8310
7895 1 8310 8311
7896 1 8311 8312
7897 1 8312 8313
7898 1 8313 8314
7899 1 8314 8315
7900 1 8315 8316
7901 1 8316 8317
7902 1 8317 8318
7903 1 8318 8319
7904 1 8319 8320
7905 1 8321 8322
7906 1 8322 8323
7907 1 8323 8324
7908 1 8324 8325
7909 1 8325 8326
7910 1 8326 8327
7911 1 8327 8328
7912 1 8328 8329
7913 1 8329 8330
7914 1 8330 8331
7915 1 8331 8332
7916 1 8332 8333
7917 1 8333 8334
7918 1 8334 8335
7919 1 8335 8336
7920 1 8336 8337
7921 1 8337 8338
7922 1 8338 8339
7923 1 8339 8340
7924 1 8341 8342
7925 1 8342 8343
7926 1 8343 8344
7927 1 8344 8345
7928 1 8345 8346
7929 1 8346 8347
7930 1 8347 8348
7931 1 8348 8349
7932 1 8349 8350
7933 1 8350 8351
7934 1 8351 8352
7935 1 8352 8353
7936 1 8353 8354
7937 1 8354 8355
7938 1 8355 8356
7939 1 8356 8357
7940 1 8357 8358
7941 1 8358 8359
7942 1 8359 8360
7943 1 8361 8362
7944 1 8362 8363
7945 1 8363 8364
7946 1 8364 8365
7947 1 8365 8366
7948 1 8366 8367
7949 1 8367 8368
7950 1 8368 8369
7951 1 8369 8370
7952 1 8370 8371
7953 1 8371 8372
7954 1 8372 8373
7955 1 8373 8374
7956 1 8374 8375
7957 1 8375 8376
7958 1 8376 8377
7959 1 8377 8378
7960 1 8378 8379
7961 1 8379 8380
7962 1 8381 8382
7963 1 8382 8383
7964 1 8383 8384
7965 1 8384 8385
7966 1 8385 8386
7967 1 8386 8387
7968 1 8387 8388
7969 1 8388 8389
7970 1 8389 8390
7971 1 8390 8391
7972 1 8391 8392
7973 1 8392 8393
7974 1 8393 8394
7975 1 8394 8395
7976 1 8395 8396
7977 1 8396 8397
7978 1 8397 8398
7979 1 8398 8399
7980 1 8399 8400
7981 1 8401 8402
7982 1 8402 8403
7983 1 8403 8404
7984 1 8404 8405
7985 1 8405 8406
7986 1 8406 8407
7987 1 8407 8408
7988 1 8408 8409
7989 1 8409 8410
7990 1 8410 8411
7991 1 8411 8412
7992 1 8412 8413
7993 1 8413 8414
7994 1 8414 8415
7995 1 8415 8416
7996 1 8416 8417
7997 1 8417 8418
7998 1 8418 8419
7999 1 8419 8420
8000 1 8421 8422
8001 1 8422 8423
8002 1 8423 8424
8003 1 8424 8425
8004 1 8425 8426
8005 1 8426 8427
8006 1 8427 8428
8007 1 8428 8429
8008 1 8429 8430
8009 1 8430 8431
8010 1 8431 8432
8011 1 8432 8433
8012 1 8433 8434
8013 1 8434 8435
8014 1 8435 8436
8015 1 8436 8437
8016 1 8437 8438
8017 1 8438 8439
8018 1 8439 8440
8019 1 8441 8442
8020 1 8442 8443
8021 1 8443 8444
8022 1 8444 8445
8023 1 8445 8446
8024 1 8446 8447
8025 1 8447 8448
8026 1 8448 8449
8027 1 8449 8450
8028 1 8450 8451
8029 1 8451 8452
8030 1 8452 8453
8031 1 8453 8454
8032 1 8454 8455
8033 1 8455 8456
8034 1 8456 8457
8035 1 8457 8458
8036 1 8458 8459
8037 1 8459 8460
8038 1 8461 8462
8039 1 8462 8463
8040 1 8463 8464
8041 1 8464 8465
8042 1 8465 8466
8043 1 8466 8467
8044 1 8467 8468
8045 1 8468 8469
8046 1 8469 8470
8047 1 8470 8471
8048 1 8471 8472
8049 1 8472 8473
8050 1 8473 8474
8051 1 8474 8475
8052 1 8475 8476
8053 1 8476 8477
8054 1 8477 8478
8055 1 8478 8479
8056 1 8479 8480
8057 1 8481 8482
8058 1 8482 8483
8059 1 8483 8484
8060 1 8484 8485
8061 1 8485 8486
8062 1 8486 8487
8063 1 8487 8488
8064 1 8488 8489
8065 1 8489 8490
8066 1 8490 8491
8067 1 8491 8492
8068 1 8492 8493
8069 1 8493 8494
8070 1 8494 8495
8071 1 8495 8496
8072 1 8496 8497
8073 1 8497 8498
8074 1 8498 8499
8075 1 8499 8500
8076 1 8501 8502
8077 1 8502 8503
8078 1 8503 8504
8079 1 8504 8505
8080 1 8505 8506
8081 1 8506 8507
8082 1 8507 8508
8083 1 8508 8509
8084 1 8509 8510
8085 1 8510 8511
8086 1 8511 8512
8087 1 8512 8513
8088 1 8513 8514
8089 1 8514 8515
8090 1 8515 8516
8091 1 8516 8517
8092 1 8517 8518
8093 1 8518 8519
8094 1 8519 8520
8095 1 8521 8522
8096 1 8522 8523
8097 1 8523 8524
8098 1 8524 8525
8099 1 8525 8526
8100 1 8526 8527
8101 1 8527 8528
8102 1 8528 8529
8103 1 8529 8530
8104 1 8530 8531
8105 1 8531 8532
8106 1 8532 8533
8107 1 8533 8534
8108 1 8534 8535
8109 1 8535 8536
8110 1 8536 8537
8111 1 8537 8538
8112 1 8538 8539
8113 1 8539 8540
8114 1 8541 8542
8115 1 8542 8543
8116 1 8543 8544
8117 1 8544 8545
8118 1 8545 8546
8119 1 8546 8547
8120 1 8547 8548
8121 1 8548 8549
8122 1 8549 8550
8123 1 8550 8551
8124 1 8551 8552
8125 1 8552 8553
8126 1 8553 8554
8127 1 8554 8555
8128 1 8555 8556
8129 1 8556 8557
8130 1 8557 8558
8131 1 8558 8559
8132 1 8559 8560
8133 1 8561 8562
8134 1 8562 8563
8135 1 8563 8564
8136 1 8564 8565
8137 1 8565 8566
8138 1 8566 8567
8139 1 8567 8568
8140 1 8568 8569
8141 1 8569 8570
8142 1 8570 8571
8143 1 8571 8572
8144 1 8572 8573
8145 1 8573 8574
8146 1 8574 8575
8147 1 8575 8576
8148 1 8576 8577
8149 1 8577 8578
8150 1 8578 8579
8151 1 8579 8580
8152 1 8581 8582
8153 1 8582 8583
8154 1 8583 8584
8155 1 8584 8585
8156 1 8585 8586
8157 1 8586 8587
8158 1 8587 8588
8159 1 8588 8589
8160 1 8589 8590
8161 1 8590 8591
8162 1 8591 8592
8163 1 8592 8593
8164 1 8593 8594
8165 1 8594 8595
8166 1 8595 8596
8167 1 8596 8597
8168 1 8597 8598
8169 1 8598 8599
8170 1 8599 8600
8171 1 8601 8602
8172 1 8602 8603
8173 1 8603 8604
8174 1 8604 8605
8175 1 8605 8606
8176 1 8606 8607
8177 1 8607 8608
8178 1 8608 8609
8179 1 8609 8610
8180 1 8610 8611
8181 1 8611 8612
8182 1 8612 8613
8183 1 8613 8614
8184 1 8614 8615
8185 1 8615 8616
8186 1 8616 8617
8187 1 8617 8618
8188 1 8618 8619
8189 1 8619 8620
8190 1 8621 8622
8191 1 8622 8623
8192 1 8623 8624
8193 1 8624 8625
8194 1 8625 8626
8195 1 8626 8627
8196 1 8627 8628
8197 1 8628 8629
8198 1 8629 8630
8199 1 8630 8631
8200 1 8631 8632
8201 1 8632 8633
8202 1 8633 8634
8203 1 8634 8635
8204 1 8635 8636
8205 1 8636 8637
8206 1 8637 8638
8207 1 8638 8639
8208 1 8639 8640
8209 1 8641 8642
8210 1 8642 8643
8211 1 8643 8644
8212 1 8644 8645
8213 1 8645 8646
8214 1 8646 8647
8215 1 8647 8648
8216 1 8648 8649
8217 1 8649 8650
8218 1 8650 8651
8219 1 8651 8652
8220 1 8652 8653
8221 1 8653 8654
8222 1 8654 8655
8223 1 8655 8656
8224 1 8656 8657
8225 1 8657 8658
8226 1 8658 8659
8227 1 8659 8660
8228 1 8661 8662
8229 1 8662 8663
8230 1 8663 8664
8231 1 8664 8665
8232 1 8665 8666
8233 1 8666 8667
8234 1 8667 8668
8235 1 8668 8669
8236 1 8669 8670
8237 1 8670 8671
8238 1 8671 8672
8239 1 8672 8673
8240 1 8673 8674
8241 1 8674 8675
8242 1 8675 8676
8243 1 8676 8677
8244 1 8677 8678
8245 1 8678 8679
8246 1 8679 8680
8247 1 8681 8682
8248 1 8682 8683
8249 1 8683 8684
8250 1 8684 8685
8251 1 8685 8686
8252 1 8686 8687
8253 1 8687 8688
8254 1 8688 8689
8255 1 8689 8690
8256 1 8690 8691
8257 1 8691 8692
8258 1 8692 8693
8259 1 8693 8694
8260 1 8694 8695
8261 1 8695 8696
8262 1 8696 8697
8263 1 8697 8698
8264 1 8698 8699
8265 1 8699 8700
8266 1 8701 8702
8267 1 8702 8703
8268 1 8703 8704
8269 1 8704 8705
8270 1 8705 8706
8271 1 8706 8707
8272 1 8707 8708
8273 1 8708 8709
8274 1 8709 8710
8275 1 8710 8711
8276 1 8711 8712
8277 1 8712 8713
8278 1 8713 8714
8279 1 8714 8715
8280 1 8715 8716
8281 1 8716 8717
8282 1 8717 8718
8283 1 8718 8719
8284 1 8719 8720
8285 1 8721 8722
8286 1 8722 8723
8287 1 8723 8724
8288 1 8724 8725
8289 1 8725 8726
8290 1 8726 8727
8291 1 8727 8728
8292 1 8728 8729
8293 1 8729 8730
8294 1 8730 8731
8295 1 8731 8732
8296 1 8732 8733
8297 1 8733 8734
8298 1 8734 8735
8299 1 8735 8736
8300 1 8736 8737
8301 1 8737 8738
8302 1 8738 8739
8303 1 8739 8740
8304 1 8741 8742
8305 1 8742 8743
8306 1 8743 8744
8307 1 8744 8745
8308 1 8745 8746
8309 1 8746 8747
8310 1 8747 8748
8311 1 8748 8749
8312 1 8749 8750
8313 1 8750 8751
8314 1 8751 8752
8315 1 8752 8753
8316 1 8753 8754
8317 1 8754 8755
8318 1 8755 8756
8319 1 8756 8757
8320 1 8757 8758
8321 1 8758 8759
8322 1 8759 8760
8323 1 8761 8762
8324 1 8762 8763
8325 1 8763 8764
8326 1 8764 8765
8327 1 8765 8766
8328 1 8766 8767
8329 1 8767 8768
8330 1 8768 8769
8331 1 8769 8770
8332 1 8770 8771
8333 1 8771 8772
8334 1 8772 8773
8335 1 8773 8774
8336 1 8774 8775
8337 1 8775 8776
8338 1 8776 8777
8339 1 8777 8778
8340 1 8778 8779
8341 1 8779 8780
8342 1 8781 8782
8343 1 8782 8783
8344 1 8783 8784
8345 1 8784 8785
8346 1 8785 8786
8347 1 8786 8787
8348 1 8787 8788
8349 1 8788 8789
8350 1 8789 8790
8351 1 8790 8791
8352 1 8791 8792
8353 1 8792 8793
8354 1 8793 8794
8355 1 8794 8795
8356 1 8795 8796
8357 1 8796 8797
8358 1 8797 8798
8359 1 8798 8799
8360 1 8799 8800
8361 1 8801 8802
8362 1 8802 8803
8363 1 8803 8804
8364 1 8804 8805
8365 1 8805 8806
8366 1 8806 8807
8367 1 8807 8808
8368 1 8808 8809
8369 1 8809 8810
8370 1 8810 8811
8371 1 8811 8812
8372 1 8812 8813
8373 1 8813 8814
8374 1 8814 8815
8375 1 8815 8816
8376 1 8816 8817
8377 1 8817 8818
8378 1 8818 8819
8379 1 8819 8820
8380 1 8821 8822
8381 1 8822 8823
8382 1 8823 8824
8383 1 8824 8825
8384 1 8825 8826
8385 1 8826 8827
8386 1 8827 8828
8387 1 8828 8829
8388 1 8829 8830
8389 1 8830 8831
8390 1 8831 8832
8391 1 8832 8833
8392 1 8833 8834
8393 1 8834 8835
8394 1 8835 8836
8395 1 8836 8837
8396 1 8837 8838
8397 1 8838 8839
8398 1 8839 8840
8399 1 8841 8842
8400 1 8842 8843
8401 1 8843 8844
8402 1 8844 8845
8403 1 8845 8846
8404 1 8846 8847
8405 1 8847 8848
8406 1 8848 8849
8407 1 8849 8850
8408 1 8850 8851
8409 1 8851 8852
8410 1 8852 8853
8411 1 8853 8854
8412 1 8854 8855
8413 1 8855 8856
8414 1 8856 8857
8415 1 8857 8858
8416 1 8858 8859
8417 1 8859 8860
8418 1 8861 8862
8419 1 8862 8863
8420 1 8863 8864
8421 1 8864 8865
8422 1 8865 8866
8423 1 8866 8867
8424 1 8867 8868
8425 1 8868 8869
8426 1 8869 8870
8427 1 8870 8871
8428 1 8871 8872
8429 1 8872 8873
8430 1 8873 8874
8431 1 8874 8875
8432 1 8875 8876
8433 1 8876 8877
8434 1 8877 8878
8435 1 8878 8879
8436 1 8879 8880
8437 1 8881 8882
8438 1 8882 8883
8439 1 8883 8884
8440 1 8884 8885
8441 1 8885 8886
8442 1 8886 8887
8443 1 8887 8888
8444 1 8888 8889
8445 1 8889 8890
8446 1 8890 8891
8447 1 8891 8892
8448 1 8892 8893
8449 1 8893 8894
8450 1 8894 8895
8451 1 8895 8896
8452 1 8896 8897
8453 1 8897 8898
8454 1 8898 8899
8455 1 8899 8900
8456 1 8901 8902
8457 1 8902 8903
8458 1 8903 8904
8459 1 8904 8905
8460 1 8905 8906
8461 1 8906 8907
8462 1 8907 8908
8463 1 8908 8909
8464 1 8909 8910
8465 1 8910 8911
8466 1 8911 8912
8467 1 8912 8913
8468 1 8913 8914
8469 1 8914 8915
8470 1 8915 8916
8471 1 8916 8917
8472 1 8917 8918
8473 1 8918 8919
8474 1 8919 8920
8475 1 8921 8922
8476 1 8922 8923
8477 1 8923 8924
8478 1 8924 8925
8479 1 8925 8926
8480 1 8926 8927
8481 1 8927 8928
8482 1 8928 8929
8483 1 8929 8930
8484 1 8930 8931
8485 1 8931 8932
8486 1 8932 8933
8487 1 8933 8934
8488 1 8934 8935
8489 1 8935 8936
8490 1 8936 8937
8491 1 8937 8938
8492 1 8938 8939
8493 1 8939 8940
8494 1 8941 8942
8495 1 8942 8943
8496 1 8943 8944
8497 1 8944 8945
8498 1 8945 8946
8499 1 8946 8947
8500 1 8947 8948
8501 1 8948 8949
8502 1 8949 8950
8503 1 8950 8951
8504 1 8951 8952
8505 1 8952 8953
8506 1 8953 8954
8507 1 8954 8955
8508 1 8955 8956
8509 1 8956 8957
8510 1 8957 8958
8511 1 8958 8959
8512 1 8959 8960
8513 1 8961 8962
8514 1 8962 8963
8515 1 8963 8964
8516 1 8964 8965
8517 1 8965 8966
8518 1 8966 8967
8519 1 8967 8968
8520 1 8968 8969
8521 1 8969 8970
8522 1 8970 8971
8523 1 8971 8972
8524 1 8972 8973
8525 1 8973 8974
8526 1 8974 8975
8527 1 8975 8976
8528 1 8976 8977
8529 1 8977 8978
8530 1 8978 8979
8531 1 8979 8980
8532 1 8981 8982
8533 1 8982 8983
8534 1 8983 8984
8535 1 8984 8985
8536 1 8985 8986
8537 1 8986 8987
8538 1 8987 8988
8539 1 8988 8989
8540 1 8989 8990
8541 1 8990 8991
8542 1 8991 8992
8543 1 8992 8993
8544 1 8993 8994
8545 1 8994 8995
8546 1 8995 8996
8547 1 8996 8997
8548 1 8997 8998
8549 1 8998 8999
8550 1 8999 9000
8551 1 9001 9002
8552 1 9002 9003
8553 1 9003 9004
8554 1 9004 9005
8555 1 9005 9006
8556 1 9006 9007
8557 1 9007 9008
8558 1 9008 9009
8559 1 9009 9010
8560 1 9010 9011
8561 1 9011 9012
8562 1 9012 9013
8563 1 9013 9014
8564 1 9014 9015
8565 1 9015 9016
8566 1 9016 9017
8567 1 9017 9018
8568 1 9018 9019
8569 1 9019 9020
8570 1 9021 9022
8571 1 9022 9023
8572 1 9023 9024
8573 1 9024 9025
8574 1 9025 9026
8575 1 9026 9027
8576 1 9027 9028
8577 1 9028 9029
8578 1 9029 9030
8579 1 9030 9031
8580 1 9031 9032
8581 1 9032 9033
8582 1 9033 9034
8583 1 9034 9035
8584 1 9035 9036
8585 1 9036 9037
8586 1 9037 9038
8587 1 9038 9039
8588 1 9039 9040
8589 1 9041 9042
8590 1 9042 9043
8591 1 9043 9044
8592 1 9044 9045
8593 1 9045 9046
8594 1 9046 9047
8595 1 9047 9048
8596 1 9048 9049
8597 1 9049 9050
8598 1 9050 9051
8599 1 9051 9052
8600 1 9052 9053
8601 1 9053 9054
8602 1 9054 9055
8603 1 9055 9056
8604 1 9056 9057
8605 1 9057 9058
8606 1 9058 9059
8607 1 9059 9060
8608 1 9061 9062
8609 1 9062 9063
8610 1 9063 9064
8611 1 9064 9065
8612 1 9065 9066
8613 1 9066 9067
8614 1 9067 9068
8615 1 9068 9069
8616 1 9069 9070
8617 1 9070 9071
8618 1 9071 9072
8619 1 9072 9073
8620 1 9073 9074
8621 1 9074 9075
8622 1 9075 9076
8623 1 9076 9077
8624 1 9077 9078
8625 1 9078 9079
8626 1 9079 9080
8627 1 9081 9082
8628 1 9082 9083
8629 1 9083 9084
8630 1 9084 9085
8631 1 9085 9086
8632 1 9086 9087
8633 1 9087 9088
8634 1 9088 9089
8635 1 9089 9090
8636 1 9090 9091
8637 1 9091 9092
8638 1 9092 9093
8639 1 9093 9094
8640 1 9094 9095
8641 1 9095 9096
8642 1 9096 9097
8643 1 9097 9098
8644 1 9098 9099
8645 1 9099 9100
8646 1 9101 9102
8647 1 9102 9103
8648 1 9103 9104
8649 1 9104 9105
8650 1 9105 9106
8651 1 9106 9107
8652 1 9107 9108
8653 1 9108 9109
8654 1 9109 9110
8655 1 9110 9111
8656 1 9111 9112
8657 1 9112 9113
8658 1 9113 9114
8659 1 9114 9115
8660 1 9115 9116
8661 1 9116 9117
8662 1 9117 9118
8663 1 9118 9119
8664 1 9119 9120
8665 1 9121 9122
8666 1 9122 9123
8667 1 9123 9124
8668 1 9124 9125
8669 1 9125 9126
8670 1 9126 9127
8671 1 9127 9128
8672 1 9128 9129
8673 1 9129 9130
8674 1 9130 9131
8675 1 9131 9132
8676 1 9132 9133
8677 1 9133 9134
8678 1 9134 9135
8679 1 9135 9136
8680 1 9136 9137
8681 1 9137 9138
8682 1 9138 9139
8683 1 9139 9140
8684 1 9141 9142
8685 1 9142 9143
8686 1 9143 9144
8687 1 9144 9145
8688 1 9145 9146
8689 1 9146 9147
8690 1 9147 9148
8691 1 9148 9149
8692 1 9149 9150
8693 1 9150 9151
8694 1 9151 9152
8695 1 9152 9153
8696 1 9153 9154
8697 1 9154 9155
8698 1 9155 9156
8699 1 9156 9157
8700 1 9157 9158
8701 1 9158 9159
8702 1 9159 9160
8703 1 9161 9162
8704 1 9162 9163
8705 1 9163 9164
8706 1 9164 9165
8707 1 9165 9166
8708 1 9166 9167
8709 1 9167 9168
8710 1 9168 9169
8711 1 9169 9170
8712 1 9170 9171
8713 1 9171 9172
8714 1 9172 9173
8715 1 9173 9174
8716 1 9174 9175
8717 1 9175 9176
8718 1 9176 9177
8719 1 9177 9178
8720 1 9178 9179
8721 1 9179 9180
8722 1 9181 9182
8723 1 9182 9183
8724 1 9183 9184
8725 1 9184 9185
8726 1 9185 9186
8727 1 9186 9187
8728 1 9187 9188
8729 1 9188 9189
8730 1 9189 9190
8731 1 9190 9191
8732 1 9191 9192
8733 1 9192 9193
8734 1 9193 9194
8735 1 9194 9195
8736 1 9195 9196
8737 1 9196 9197
8738 1 9197 9198
8739 1 9198 9199
8740 1 9199 9200
8741 1 9201 9202
8742 1 9202 9203
8743 1 9203 9204
8744 1 9204 9205
8745 1 9205 9206
8746 1 9206 9207
8747 1 9207 9208
8748 1 9208 9209
8749 1 9209 9210
8750 1 9210 9211
8751 1 9211 9212
8752 1 9212 9213
8753 1 9213 9214
8754 1 9214 9215
8755 1 9215 9216
8756 1 9216 9217
8757 1 9217 9218
8758 1 9218 9219
8759 1 9219 9220
8760 1 9221 9222
8761 1 9222 9223
8762 1 9223 9224
8763 1 9224 9225
8764 1 9225 9226
8765 1 9226 9227
8766 1 9227 9228
8767 1 9228 9229
8768 1 9229 9230
8769 1 9230 9231
8770 1 9231 9232
8771 1 9232 9233
8772 1 9233 9234
8773 1 9234 9235
8774 1 9235 9236
8775 1 9236 9237
8776 1 9237 9238
8777 1 9238 9239
8778 1 9239 9240
8779 1 9241 9242
8780 1 9242 9243
8781 1 9243 9244
8782 1 9244 9245
8783 1 9245 9246
8784 1 9246 9247
8785 1 9247 9248
8786 1 9248 9249
8787 1 9249 9250
8788 1 9250 9251
8789 1 9251 9252
8790 1 9252 9253
8791 1 9253 9254
8792 1 9254 9255
8793 1 9255 9256
8794 1 9256 9257
8795 1 9257 9258
8796 1 9258 9259
8797 1 9259 9260
8798 1 9261 9262
8799 1 9262 9263
8800 1 9263 9264
8801 1 9264 9265
8802 1 9265 9266
8803 1 9266 9267
8804 1 9267 9268
8805 1 9268 9269
8806 1 9269 9270
8807 1 9270 9271
8808 1 9271 9272
8809 1 9272 9273
8810 1 9273 9274
8811 1 9274 9275
8812 1 9275 9276
8813 1 9276 9277
8814 1 9277 9278
8815 1 9278 9279
8816 1 9279 9280
8817 1 9281 9282
8818 1 9282 9283
8819 1 9283 9284
8820 1 9284 9285
8821 1 9285 9286
8822 1 9286 9287
8823 1 9287 9288
8824 1 9288 9289
8825 1 9289 9290
8826 1 9290 9291
8827 1 9291 9292
8828 1 9292 9293
8829 1 9293 9294
8830 1 9294 9295
8831 1 9295 9296
8832 1 9296 9297
8833 1 9297 9298
8834 1 9298 9299
8835 1 9299 9300
8836 1 9301 9302
8837 1 9302 9303
8838 1 9303 9304
8839 1 9304 9305
8840 1 9305 9306
8841 1 9306 9307
8842 1 9307 9308
8843 1 9308 9309
8844 1 9309 9310
8845 1 9310 9311
8846 1 9311 9312
8847 1 9312 9313
8848 1 9313 9314
8849 1 9314 9315
8850 1 9315 9316
8851 1 9316 9317
8852 1 9317 9318
8853 1 9318 9319
8854 1 9319 9320
8855 1 9321 9322
8856 1 9322 9323
8857 1 9323 9324
8858 1 9324 9325
8859 1 9325 9326
8860 1 9326 9327
8861 1 9327 9328
8862 1 9328 9329
8863 1 9329 9330
8864 1 9330 9331
8865 1 9331 9332
8866 1 9332 9333
8867 1 9333 9334
8868 1 9334 9335
8869 1 9335 9336
8870 1 9336 9337
8871 1 9337 9338
8872 1 9338 9339
8873 1 9339 9340
8874 1 9341 9342
8875 1 9342 9343
8876 1 9343 9344
8877 1 9344 9345
8878 1 9345 9346
8879 1 9346 9347
8880 1 9347 9348
8881 1 9348 9349
8882 1 9349 9350
8883 1 9350 9351
8884 1 9351 9352
8885 1 9352 9353
8886 1 9353 9354
8887 1 9354 9355
8888 1 9355 9356
8889 1 9356 9357
8890 1 9357 9358
8891 1 9358 9359
8892 1 9359 9360
8893 1 9361 9362
8894 1 9362 9363
8895 1 9363 9364
8896 1 9364 9365
8897 1 9365 9366
8898 1 9366 9367
8899 1 9367 9368
8900 1 9368 9369
8901 1 9369 9370
8902 1 9370 9371
8903 1 9371 9372
8904 1 9372 9373
8905 1 9373 9374
8906 1 9374 9375
8907 1 9375 9376
8908 1 9376 9377
8909 1 9377 9378
8910 1 9378 9379
8911 1 9379 9380
8912 1 9381 9382
8913 1 9382 9383
8914 1 9383 9384
8915 1 9384 9385
8916 1 9385 9386
8917 1 9386 9387
8918 1 9387 9388
8919 1 9388 9389
8920 1 9389 9390
8921 1 9390 9391
8922 1 9391 9392
8923 1 9392 9393
8924 1 9393 9394
8925 1 9394 9395
8926 1 9395 9396
8927 1 9396 9397
8928 1 9397 9398
8929 1 9398 9399
8930 1 9399 9400
8931 1 9401 9402
8932 1 9402 9403
8933 1 9403 9404
8934 1 9404 9405
8935 1 9405 9406
8936 1 9406 9407
8937 1 9407 9408
8938 1 9408 9409
8939 1 9409 9410
8940 1 9410 9411
8941 1 9411 9412
8942 1 9412 9413
8943 1 9413 9414
8944 1 9414 9415
8945 1 9415 9416
8946 1 9416 9417
8947 1 9417 9418
8948 1 9418 9419
8949 1 9419 9420
8950 1 9421 9422
8951 1 9422 9423
8952 1 9423 9424
8953 1 9424 9425
8954 1 9425 9426
8955 1 9426 9427
8956 1 9427 9428
8957 1 9428 9429
8958 1 9429 9430
8959 1 9430 9431
8960 1 9431 9432
8961 1 9432 9433
8962 1 9433 9434
8963 1 9434 9435
8964 1 9435 9436
8965 1 9436 9437
8966 1 9437 9438
8967 1 9438 9439
8968 1 9439 9440
8969 1 9441 9442
8970 1 9442 9443
8971 1 9443 9444
8972 1 9444 9445
8973 1 9445 9446
8974 1 9446 9447
8975 1 9447 9448
8976 1 9448 9449
8977 1 9449 9450
8978 1 9450 9451
8979 1 9451 9452
8980 1 9452 9453
8981 1 9453 9454
8982 1 9454 9455
8983 1 9455 9456
8984 1 9456 9457
8985 1 9457 9458
8986 1 9458 9459
8987 1 9459 9460
8988 1 9461 9462
8989 1 9462 9463
8990 1 9463 9464
8991 1 9464 9465
8992 1 9465 9466
8993 1 9466 9467
8994 1 9467 9468
8995 1 9468 9469
8996 1 9469 9470
8997 1 9470 9471
8998 1 9471 9472
8999 1 9472 9473
9000 1 9473 9474
9001 1 9474 9475
9002 1 9475 9476
9003 1 9476 9477
9004 1 9477 9478
9005 1 9478 9479
9006 1 9479 9480
9007 1 9481 9482
9008 1 9482 9483
9009 1 9483 9484
9010 1 9484 9485
9011 1 9485 9486
9012 1 9486 9487
9013 1 9487 9488
9014 1 9488 9489
9015 1 9489 9490
9016 1 9490 9491
9017 1 9491 9492
9018 1 9492 9493
9019 1 9493 9494
9020 1 9494 9495
9021 1 9495 9496
9022 1 9496 9497
9023 1 9497 9498
9024 1 9498 9499
9025 1 9499 9500
9026 1 9501 9502
9027 1 9502 9503
9028 1 9503 9504
9029 1 9504 9505
9030 1 9505 9506
9031 1 9506 9507
9032 1 9507 9508
9033 1 9508 9509
9034 1 9509 9510
9035 1 9510 9511
9036 1 9511 9512
9037 1 9512 9513
9038 1 9513 9514
9039 1 9514 9515
9040 1 9515 9516
9041 1 9516 9517
9042 1 9517 9518
9043 1 9518 9519
9044 1 9519 9520
9045 1 9521 9522
9046 1 9522 9523
9047 1 9523 9524
9048 1 9524 9525
9049 1 9525 9526
9050 1 9526 9527
9051 1 9527 9528
9052 1 9528 9529
9053 1 9529 9530
9054 1 9530 9531
9055 1 9531 9532
9056 1 9532 9533
9057 1 9533 9534
9058 1 9534 9535
9059 1 9535 9536
9060 1 9536 9537
9061 1 9537 9538
9062 1 9538 9539
9063 1 9539 9540
9064 1 9541 9542
9065 1 9542 9543
9066 1 9543 9544
9067 1 9544 9545
9068 1 9545 9546
9069 1 9546 9547
9070 1 9547 9548
9071 1 9548 9549
9072 1 9549 9550
9073 1 9550 9551
9074 1 9551 9552
9075 1 9552 9553
9076 1 9553 9554
9077 1 9554 9555
9078 1 9555 9556
9079 1 9556 9557
9080 1 9557 9558
9081 1 9558 9559
9082 1 9559 9560
9083 1 9561 9562
9084 1 9562 9563
9085 1 9563 9564
9086 1 9564 9565
9087 1 9565 9566
9088 1 9566 9567
9089 1 9567 9568
9090 1 9568 9569
9091 1 9569 9570
9092 1 9570 9571
9093 1 9571 9572
9094 1 9572 9573
9095 1 9573 9574
9096 1 9574 9575
9097 1 9575 9576
9098 1 9576 9577
9099 1 9577 9578
9100 1 9578 9579
9101 1 9579 9580
9102 1 9581 9582
9103 1 9582 9583
9104 1 9583 9584
9105 1 9584 9585
9106 1 9585 9586
9107 1 9586 9587
9108 1 9587 9588
9109 1 9588 9589
9110 1 9589 9590
9111 1 9590 9591
9112 1 9591 9592
9113 1 9592 9593
9114 1 9593 9594
9115 1 9594 9595
9116 1 9595 9596
9117 1 9596 9597
9118 1 9597 9598
9119 1 9598 9599
9120 1 9599 9600
9121 1 9601 9602
9122 1 9602 9603
9123 1 9603 9604
9124 1 9604 9605
9125 1 9605 9606
9126 1 9606 9607
9127 1 9607 9608
9128 1 9608 9609
9129 1 9609 9610
9130 1 9610 9611
9131 1 9611 9612
9132 1 9612 9613
9133 1 9613 9614
9134 1 9614 9615
9135 1 9615 9616
9136 1 9616 9617
9137 1 9617 9618
9138 1 9618 9619
9139 1 9619 9620
9140 1 9621 9622
9141 1 9622 9623
9142 1 9623 9624
9143 1 9624 9625
9144 1 9625 9626
9145 1 9626 9627
9146 1 9627 9628
9147 1 9628 9629
9148 1 9629 9630
9149 1 9630 9631
9150 1 9631 9632
9151 1 9632 9633
9152 1 9633 9634
9153 1 9634 9635
9154 1 9635 9636
9155 1 9636 9637
9156 1 9637 9638
9157 1 9638 9639
9158 1 9639 9640
9159 1 9641 9642
9160 1 9642 9643
9161 1 9643 9644
9162 1 9644 9645
9163 1 9645 9646
9164 1 9646 9647
9165 1 9647 9648
9166 1 9648 9649
9167 1 9649 9650
9168 1 9650 9651
9169 1 9651 9652
9170 1 9652 9653
9171 1 9653 9654
9172 1 9654 9655
9173 1 9655 9656
9174 1 9656 9657
9175 1 9657 9658
9176 1 9658 9659
9177 1 9659 9660
9178 1 9661 9662
9179 1 9662 9663
9180 1 9663 9664
9181 1 9664 9665
9182 1 9665 9666
9183 1 9666 9667
9184 1 9667 9668
9185 1 9668 9669
9186 1 9669 9670
9187 1 9670 9671
9188 1 9671 9672
9189 1 9672 9673
9190 1 9673 9674
9191 1 9674 9675
9192 1 9675 9676
9193 1 9676 9677
9194 1 9677 9678
9195 1 9678 9679
9196 1 9679 9680
9197 1 9681 9682
9198 1 9682 9683
9199 1 9683 9684
9200 1 9684 9685
9201 1 9685 9686
9202 1 9686 9687
9203 1 9687 9688
9204 1 9688 9689
9205 1 9689 9690
9206 1 9690 9691
9207 1 9691 9692
9208 1 9692 9693
9209 1 9693 9694
9210 1 9694 9695
9211 1 9695 9696
9212 1 9696 9697
9213 1 9697 9698
9214 1 9698 9699
9215 1 9699 9700
9216 1 9701 9702
9217 1 9702 9703
9218 1 9703 9704
9219 1 9704 9705
9220 1 9705 9706
9221 1 9706 9707
9222 1 9707 9708
9223 1 9708 9709
9224 1 9709 9710
9225 1 9710 9711
9226 1 9711 9712
9227 1 9712 9713
9228 1 9713 9714
9229 1 9714 9715
9230 1 9715 9716
9231 1 9716 9717
9232 1 9717 9718
9233 1 9718 9719
9234 1 9719 9720
9235 1 9721 9722
9236 1 9722 9723
9237 1 9723 9724
9238 1 9724 9725
9239 1 9725 9726
9240 1 9726 9727
9241 1 9727 9728
9242 1 9728 9729
9243 1 9729 9730
9244 1 9730 9731
9245 1 9731 9732
9246 1 9732 9733
9247 1 9733 9734
9248 1 9734 9735
9249 1 9735 9736
9250 1 9736 9737
9251 1 9737 9738
9252 1 9738 9739
9253 1 9739 9740
9254 1 9741 9742
9255 1 9742 9743
9256 1 9743 9744
9257 1 9744 9745
9258 1 9745 9746
9259 1 9746 9747
9260 1 9747 9748
9261 1 9748 9749
9262 1 9749 9750
9263 1 9750 9751
9264 1 9751 9752
9265 1 9752 9753
9266 1 9753 9754
9267 1 9754 9755
9268 1 9755 9756
9269 1 9756 9757
9270 1 9757 9758
9271 1 9758 9759
9272 1 9759 9760
9273 1 9761 9762
9274 1 9762 9763
9275 1 9763 9764
9276 1 9764 9765
9277 1 9765 9766
9278 1 9766 9767
9279 1 9767 9768
9280 1 9768 9769
9281 1 9769 9770
9282 1 9770 9771
9283 1 9771 9772
9284 1 9772 9773
9285 1 9773 9774
9286 1 9774 9775
9287 1 9775 9776
9288 1 9776 9777
9289 1 9777 9778
9290 1 9778 9779
9291 1 9779 9780
9292 1 9781 9782
9293 1 9782 9783
9294 1 9783 9784
9295 1 9784 9785
9296 1 9785 9786
9297 1 9786 9787
9298 1 9787 9788
9299 1 9788 9789
9300 1 9789 9790
9301 1 9790 9791
9302 1 9791 9792
9303 1 9792 9793
9304 1 9793 9794
9305 1 9794 9795
9306 1 9795 9796
9307 1 9796 9797
9308 1 9797 9798
9309 1 9798 9799
9310 1 9799 9800
9311 1 9801 9802
9312 1 9802 9803
9313 1 9803 9804
9314 1 9804 9805
9315 1 9805 9806
9316 1 9806 9807
9317 1 9807 9808
9318 1 9808 9809
9319 1 9809 9810
9320 1 9810 9811
9321 1 9811 9812
9322 1 9812 9813
9323 1 9813 9814
9324 1 9814 9815
9325 1 9815 9816
9326 1 9816 9817
9327 1 9817 9818
9328 1 9818 9819
9329 1 9819 9820
9330 1 9821 9822
9331 1 9822 9823
9332 1 9823 9824
9333 1 9824 9825
9334 1 9825 9826
9335 1 9826 9827
9336 1 9827 9828
9337 1 9828 9829
9338 1 9829 9830
9339 1 9830 9831
9340 1 9831 9832
9341 1 9832 9833
9342 1 9833 9834
9343 1 9834 9835
9344 1 9835 9836
9345 1 9836 9837
9346 1 9837 9838
9347 1 9838 9839
9348 1 9839 9840
9349 1 9841 9842
9350 1 9842 9843
9351 1 9843 9844
9352 1 9844 9845
9353 1 9845 9846
9354 1 9846 9847
9355 1 9847 9848
9356 1 9848 9849
9357 1 9849 9850
9358 1 9850 9851
9359 1 9851 9852
9360 1 9852 9853
9361 1 9853 9854
9362 1 9854 9855
9363 1 9855 9856
9364 1 9856 9857
9365 1 9857 9858
9366 1 9858 9859
9367 1 9859 9860
9368 1 9861 9862
9369 1 9862 9863
9370 1 9863 9864
9371 1 9864 9865
9372 1 9865 9866
9373 1 9866 9867
9374 1 9867 9868
9375 1 9868 9869
9376 1 9869 9870
9377 1 9870 9871
9378 1 9871 9872
9379 1 9872 9873
9380 1 9873 9874
9381 1 9874 9875
9382 1 9875 9876
9383 1 9876 9877
9384 1 9877 9878
9385 1 9878 9879
9386 1 9879 9880
9387 1 9881 9882
9388 1 9882 9883
9389 1 9883 9884
9390 1 9884 9885
9391 1 9885 9886
9392 1 9886 9887
9393 1 9887 9888
9394 1 9888 9889
9395 1 9889 9890
9396 1 9890 9891
9397 1 9891 9892
9398 1 9892 9893
9399 1 9893 9894
9400 1 9894 9895
9401 1 9895 9896
9402 1 9896 9897
9403 1 9897 9898
9404 1 9898 9899
9405 1 9899 9900
9406 1 9901 9902
9407 1 9902 9903
9408 1 9903 9904
9409 1 9904 9905
9410 1 9905 9906
9411 1 9906 9907
9412 1 9907 9908
9413 1 9908 9909
9414 1 9909 9910
9415 1 9910 9911
9416 1 9911 9912
9417 1 9912 9913
9418 1 9913 9914
9419 1 9914 9915
9420 1 9915 9916
9421 1 9916 9917
9422 1 9917 9918
9423 1 9918 9919
9424 1 9919 9920
9425 1 9921 9922
9426 1 9922 9923
9427 1 9923 9924
9428 1 9924 9925
9429 1 9925 9926
9430 1 9926 9927
9431 1 9927 9928
9432 1 9928 9929
9433 1 9929 9930
9434 1 9930 9931
9435 1 9931 9932
9436 1 9932 9933
9437 1 9933 9934
9438 1 9934 9935
9439 1 9935 9936
9440 1 9936 9937
9441 1 9937 9938
9442 1 9938 9939
9443 1 9939 9940
9444 1 9941 9942
9445 1 9942 9943
9446 1 9943 9944
9447 1 9944 9945
9448 1 9945 9946
9449 1 9946 9947
9450 1 9947 9948
9451 1 9948 9949
9452 1 9949 9950
9453 1 9950 9951
9454 1 9951 9952
9455 1 9952 9953
9456 1 9953 9954
9457 1 9954 9955
9458 1 9955 9956
9459 1 9956 9957
9460 1 9957 9958
9461 1 9958 9959
9462 1 9959 9960
9463 1 9961 9962
9464 1 9962 9963
9465 1 9963 9964
9466 1 9964 9965
9467 1 9965 9966
9468 1 9966 9967
9469 1 9967 9968
9470 1 9968 9969
9471 1 9969 9970
9472 1 9970 9971
9473 1 9971 9972
9474 1 9972 9973
9475 1 9973 9974
9476 1 9974 9975
9477 1 9975 9976
9478 1 9976 9977
9479 1 9977 9978
9480 1 9978 9979
9481 1 9979 9980
9482 1 9981 9982
9483 1 9982 9983
9484 1 9983 9984
9485 1 9984 9985
9486 1 9985 9986
9487 1 9986 9987
9488 1 9987 9988
9489 1 9988 9989
9490 1 9989 9990
9491 1 9990 9991
9492 1 9991 9992
9493 1 9992 9993
9494 1 9993 9994
9495 1 9994 9995
9496 1 9995 9996
9497 1 9996 9997
9498 1 9997 9998
9499 1 9998 9999
9500 1 9999 10000
