LAMMPS (22 Jul 2025 - Update 2)
# LAMMPS input for LJ binary mixture with Widom insertion
# Equal sigma, different epsilon

# Initialize
units           lj
atom_style      atomic
boundary        p p p

# Create simulation box
lattice         fcc 0.8
Lattice spacing in x,y,z = 1.7099759 1.7099759 1.7099759
region          box block 0 15 0 15 0 15
create_box      2 box
Created orthogonal box = (0 0 0) to (25.649639 25.649639 25.649639)
  2 by 2 by 2 MPI processor grid
create_atoms    1 box
Created 13500 atoms
  using lattice units in orthogonal box = (0 0 0) to (25.649639 25.649639 25.649639)
  create_atoms CPU = 0.005 seconds

# Set masses (both equal to 1.0 in reduced units)
mass            1 1.0
mass            2 1.0

# Set up 50:50 mixture
set             group all type/fraction 2 0.5 12345
Setting atom values ...
  6702 settings made for type/fraction

# Define groups
group           typeA type 1
6798 atoms in group typeA
group           typeB type 2
6702 atoms in group typeB

# LJ parameters
pair_style      lj/cut 3.0
pair_modify     tail yes
pair_coeff      1 1 0.8 1.0    # A-A interaction
pair_coeff      2 2 1.2 1.0    # B-B interaction
pair_coeff      1 2 0.2 1.0 # A-B interaction

# Initial velocities
velocity        all create 5.0 33333 dist gaussian

# Neighbor list
neighbor        0.3 bin
neigh_modify    every 1 delay 0 check yes

# Time integration (NPT)
fix             1 all npt temp 5.0 5.0 $(100*dt) iso 1.0 1.0 $(1000*dt)
fix             1 all npt temp 5.0 5.0 0.5 iso 1.0 1.0 $(1000*dt)
fix             1 all npt temp 5.0 5.0 0.5 iso 1.0 1.0 5
timestep        0.005

# Output including enthalpy
thermo_style    custom step temp pe ke etotal press density enthalpy vol
thermo          1000

# Equilibration
run             10000
Generated 0 of 1 mixed pair_coeff terms from geometric mixing rule
Neighbor list info ...
  update: every = 1 steps, delay = 0 steps, check = yes
  max neighbors/atom: 2000, page size: 100000
  master list distance cutoff = 3.3
  ghost atom cutoff = 3.3
  binsize = 1.65, bins = 16 16 16
  1 neighbor lists, perpetual/occasional/extra = 1 0 0
  (1) pair lj/cut, perpetual
      attributes: half, newton on
      pair build: half/bin/atomonly/newton
      stencil: half/bin/3d
      bin: standard
Per MPI rank memory allocation (min/avg/max) = 3.606 | 3.606 | 3.606 Mbytes
   Step          Temp          PotEng         KinEng         TotEng         Press         Density        Enthalpy        Volume    
         0   5             -4.0407837      7.4994444      3.4586608     -0.088736676    0.8            3.3477399      16875        
      1000   4.9882801     -1.0962223      7.481866       6.3856437      7.3787276      0.62807098     18.133882      21494.386    
      2000   5.0000911     -1.0613763      7.499581       6.4382047      4.9923533      0.5188813      16.059583      26017.511    
      3000   4.9864241     -0.93044419     7.4790821      6.5486379      3.8039393      0.44241824     15.1467        30514.113    
      4000   4.9996879     -0.84816283     7.4989763      6.6508135      3.0430682      0.38498549     14.555185      35066.257    
      5000   5.0113576     -0.77835461     7.5164796      6.738125       2.494362       0.34026231     14.068828      39675.272    
      6000   5.0056308     -0.73451126     7.50789        6.7733787      2.0832177      0.30472162     13.60984       44302.731    
      7000   5.0029166     -0.65669115     7.503819       6.8471279      1.8445472      0.27601294     13.529956      48910.75     
      8000   5.0268424     -0.60395107     7.5397051      6.935754       1.6421166      0.25272599     13.433371      53417.537    
      9000   5.0716336     -0.5706409      7.6068869      7.036246       1.4894032      0.23371946     13.408857      57761.556    
     10000   5.0024316     -0.53538625     7.5030916      6.9677054      1.3486728      0.2181746      13.149327      61877.046    
Loop time of 22.3945 on 8 procs for 10000 steps with 13500 atoms

Performance: 192904.377 tau/day, 446.538 timesteps/s, 6.028 Matom-step/s
94.6% CPU use with 8 MPI tasks x no OpenMP threads

MPI task timing breakdown:
Section |  min time  |  avg time  |  max time  |%varavg| %total
---------------------------------------------------------------
Pair    | 5.9456     | 6.0636     | 6.1633     |   3.1 | 27.08
Neigh   | 7.2011     | 7.2857     | 7.377      |   2.3 | 32.53
Comm    | 6.6764     | 6.8467     | 7.0211     |   4.9 | 30.57
Output  | 0.00023896 | 0.00026432 | 0.00041442 |   0.0 |  0.00
Modify  | 1.7701     | 1.7842     | 1.7935     |   0.5 |  7.97
Other   |            | 0.414      |            |       |  1.85

Nlocal:         1687.5 ave        1757 max        1645 min
Histogram: 1 2 1 1 1 0 1 0 0 1
Nghost:        2313.12 ave        2371 max        2273 min
Histogram: 2 1 0 1 2 0 0 1 0 1
Neighs:          27378 ave       29272 max       25840 min
Histogram: 1 1 2 0 1 0 0 2 0 1

Total # of neighbors = 219024
Ave neighs/atom = 16.224
Neighbor list builds = 3271
Dangerous builds = 0

dump            1 all custom 1000 dump.lammpstrj id type x y z
dump_modify     1 sort id

# production
thermo_style    custom step temp pe enthalpy press vol
thermo          1000
run             100000
Generated 0 of 1 mixed pair_coeff terms from geometric mixing rule
Per MPI rank memory allocation (min/avg/max) = 3.637 | 3.638 | 3.638 Mbytes
   Step          Temp          PotEng        Enthalpy        Press          Volume    
     10000   5.0024316     -0.53538625     13.149327      1.3486728      61877.046    
     11000   4.893075      -0.50842804     12.873577      1.2439264      65582.365    
     12000   4.9348636     -0.46821464     12.988716      1.1860153      68924.046    
     13000   4.9391605     -0.46687206     12.847853      1.1102022      71823.13     
     14000   5.0240276     -0.4464322      13.08964       1.0916586      74206.312    
     15000   4.9974976     -0.43503976     12.992768      1.0509007      76204.696    
     16000   5.000853      -0.43746731     12.921138      1.0190989      77599.339    
     17000   5.0458908     -0.41933295     13.118677      1.0269703      78474.929    
     18000   4.9874974     -0.408787       12.98004       1.01009        78963.09     
     19000   4.9471231     -0.42729757     12.791882      0.98694999     79322.264    
     20000   4.9876773     -0.40991072     13.010864      1.0092357      79453.668    
     21000   5.0489828     -0.41500371     13.152598      1.019489       79381.24     
     22000   4.9684433     -0.41585564     12.91971       1.0011799      79333.011    
     23000   4.9794114     -0.40943899     12.971373      0.99877178     79913.5      
     24000   5.0575802     -0.40698768     13.248729      1.0351893      79158.239    
     25000   4.9856307     -0.45622956     12.720575      0.97928941     78562.385    
     26000   5.0339178     -0.41388759     13.014726      0.98684627     80414.758    
     27000   5.0773217     -0.42692447     13.089749      1.0023473      79480.375    
     28000   4.995947      -0.41906748     12.989203      1.0097583      79079.539    
     29000   5.0004817     -0.43006117     12.861357      0.98056609     79731.384    
     30000   4.9677167     -0.40519453     12.960495      1.0075125      79252.606    
     31000   5.0097371     -0.4401612      12.875331      0.98834992     79242.665    
     32000   5.0432327     -0.42492334     13.034713      0.99104735     80306.144    
     33000   4.9496109     -0.424926       12.789919      0.98081291     79707.561    
     34000   5.0463308     -0.43936945     13.007516      1.0091927      78629.509    
     35000   4.9555236     -0.4194706      12.873383      0.99498413     79510.423    
     36000   4.9759203     -0.43844742     12.822216      0.98677243     79313.155    
     37000   5.0162303     -0.41881016     13.023278      1.0080784      79256.776    
     38000   5.0030428     -0.40935118     13.039785      1.0110371      79383.066    
     39000   4.9830265     -0.40457714     12.992073      0.99875218     80055.867    
     40000   4.9958483     -0.44284075     12.891245      1.007816       78240.195    
     41000   5.0330572     -0.41835195     13.077536      1.0113439      79382.127    
     42000   4.9791374     -0.41468819     12.919706      0.98879245     80091.892    
     43000   5.0012134     -0.41106642     13.036514      1.0139482      79170.973    
     44000   5.0270167     -0.43165933     12.937154      0.98975144     79504.234    
     45000   5.0610427     -0.42340237     13.121438      1.015589       79143.067    
     46000   4.9844387     -0.4219536      12.909409      0.98875329     79945.115    
     47000   4.9981069     -0.44421368     12.850775      0.99525989     78650.99     
     48000   5.0154474     -0.40934653     13.05596       1.0093171      79485.776    
     49000   5.0568993     -0.4307752      13.019583      0.98268894     80580.143    
     50000   5.0047866     -0.4198677      12.9709        1.0055445      78997.931    
     51000   4.9738497     -0.40741255     12.943439      1.0013787      79414.018    
     52000   4.9928813     -0.42021573     12.900215      0.99068936     79467.344    
     53000   5.0322167     -0.42580885     13.025206      1.0034864      79416.983    
     54000   5.0103905     -0.42384194     12.990953      1.0018084      79503.064    
     55000   4.9741768     -0.42075514     12.869318      1.0043072      78358.852    
     56000   5.0342625     -0.41292081     13.051897      0.99880003     79934.698    
     57000   5.042294      -0.39219997     13.221498      1.0196529      80111.608    
     58000   4.9791584     -0.42909733     12.858011      0.99561495     78901.455    
     59000   4.9433905     -0.418735       12.778243      0.98288175     79422.535    
     60000   5.012818      -0.41519929     13.018894      1.0034428      79584.224    
     61000   5.022389      -0.42608699     13.002891      0.99790201     79762.7      
     62000   4.9551883     -0.44929423     12.731784      0.98847192     78514.548    
     63000   5.0321747     -0.42408932     13.041606      1.00179        79750.148    
     64000   5.0432454     -0.41807799     13.071004      0.99626098     80284.64     
     65000   4.9694025     -0.42600663     12.852705      0.99714234     78865.026    
     66000   4.98696       -0.41738151     12.926528      0.9980472      79319.209    
     67000   5.0352292     -0.40926906     13.109942      1.0129758      79521.659    
     68000   5.0139775     -0.4302253      12.91515       0.99076049     79370.388    
     69000   4.96941       -0.42272547     12.881358      1.0026454      78773.647    
     70000   5.0058836     -0.41523361     12.969305      0.98364687     80648.499    
     71000   5.0194173     -0.4294913      12.988888      0.99652934     79789.366    
     72000   4.9371712     -0.42259789     12.836366      1.0018001      78883.711    
     73000   4.9445041     -0.42001722     12.811241      0.98642205     79583.78     
     74000   4.9740712     -0.41485855     12.941316      1.001591       79464.444    
     75000   5.0563082     -0.42062167     13.114418      1.0178078      78934.725    
     76000   5.0245049     -0.4343105      12.914674      0.97815665     80224.982    
     77000   5.0116771     -0.4176121      12.955722      0.99118281     79764.367    
     78000   5.0384057     -0.42318678     13.090008      1.0282525      78198.661    
     79000   5.0319375     -0.42274102     12.991092      0.99556565     79550.316    
     80000   4.9876408     -0.42463542     12.900472      0.99360717     79404.326    
     81000   4.9659541     -0.4153683      12.899492      0.9941975      79659.717    
     82000   4.98664       -0.42970761     12.893078      0.99487071     79292.34     
     83000   5.0025271     -0.41168868     13.021787      1.0149297      78880.582    
     84000   5.0277755     -0.42473169     12.97082       0.98686964     80086.606    
     85000   5.0296877     -0.42529311     13.003957      0.99586238     79781.354    
     86000   4.9727314     -0.4387485      12.82953       1.0010811      78346.705    
     87000   4.9353593     -0.40486524     12.88069       0.99905639     79496.39     
     88000   5.0295254     -0.40652254     13.112918      1.0120569      79711.034    
     89000   4.9835728     -0.41745909     12.930495      0.99955041     79323.17     
     90000   4.9614038     -0.41683407     12.863501      0.99656228     79095.447    
     91000   5.0302088     -0.4001774      13.190964      1.0277405      79422.993    
     92000   5.0918477     -0.40308085     13.231122      1.0009192      80885.113    
     93000   4.9448185     -0.41755539     12.850884      0.9980172      79155.719    
     94000   5.0216779     -0.42076508     13.064714      1.0211859      78705.082    
     95000   5.0282028     -0.40690934     13.125401      1.0173103      79496.509    
     96000   5.0344937     -0.41733744     13.064766      1.008052       79427.89     
     97000   4.9909941     -0.42110441     12.892959      0.9935688      79188.998    
     98000   4.9672725     -0.41974974     12.861671      0.98874468     79615.457    
     99000   5.0309542     -0.42204295     13.036831      1.0045258      79465.882    
    100000   5.0168711     -0.41580573     13.090281      1.0313587      78292.887    
    101000   5.0033047     -0.41585694     12.943427      0.9839629      80329.17     
    102000   5.0077048     -0.42237464     12.911459      0.98568259     79750.061    
    103000   4.9280302     -0.43084927     12.778977      0.99812997     78694.594    
    104000   4.9872487     -0.41213792     12.998593      1.0086208      79376.274    
    105000   5.0188263     -0.40978529     13.071325      1.008862       79665.289    
    106000   5.060357      -0.42487923     13.032833      1.003945       78903.211    
    107000   4.9649671     -0.41626256     12.866776      0.98431778     80043.138    
    108000   4.9675277     -0.42506209     12.85284       0.98598261     79785.067    
    109000   4.9917124     -0.40406771     13.054956      1.0247048      78678.4      
    110000   5.037451      -0.41349596     13.115974      1.0109337      79774.784    
Loop time of 157.421 on 8 procs for 100000 steps with 13500 atoms

Performance: 274422.920 tau/day, 635.238 timesteps/s, 8.576 Matom-step/s
94.4% CPU use with 8 MPI tasks x no OpenMP threads

MPI task timing breakdown:
Section |  min time  |  avg time  |  max time  |%varavg| %total
---------------------------------------------------------------
Pair    | 34.663     | 34.919     | 35.502     |   4.5 | 22.18
Neigh   | 62.335     | 62.583     | 62.989     |   2.9 | 39.76
Comm    | 39.079     | 40.174     | 40.679     |   7.8 | 25.52
Output  | 0.3603     | 0.38075    | 0.40328    |   2.3 |  0.24
Modify  | 15.833     | 15.924     | 16.038     |   1.6 | 10.12
Other   |            | 3.44       |            |       |  2.19

Nlocal:         1687.5 ave        1743 max        1637 min
Histogram: 1 1 0 1 2 0 1 1 0 1
Nghost:        2083.88 ave        2131 max        2045 min
Histogram: 1 1 1 1 1 0 1 0 1 1
Neighs:        21201.5 ave       22670 max       19943 min
Histogram: 1 1 0 1 2 1 0 1 0 1

Total # of neighbors = 169612
Ave neighs/atom = 12.563852
Neighbor list builds = 32691
Dangerous builds = 0

write_data      final_config_1.data
System init for write_data ...
Generated 0 of 1 mixed pair_coeff terms from geometric mixing rule
WARNING: Not all mixed pair coeffs generated from mixing. Use write_data with 'pair ij' option to store all pair coeffs. (src/write_data.cpp:364)

unfix 1
fix 2 all npt temp 1.0 1.0 $(100*dt) iso 1.0 1.0 $(1000*dt)
fix 2 all npt temp 1.0 1.0 0.5 iso 1.0 1.0 $(1000*dt)
fix 2 all npt temp 1.0 1.0 0.5 iso 1.0 1.0 5

run 100000
Generated 0 of 1 mixed pair_coeff terms from geometric mixing rule
Per MPI rank memory allocation (min/avg/max) = 5.069 | 5.069 | 5.069 Mbytes
   Step          Temp          PotEng        Enthalpy        Press          Volume    
    110000   5.037451      -0.41349596     13.115974      1.0109337      79774.784    
    111000   1.012279      -1.1066595      1.0376327      0.14385802     58744.128    
    112000   0.99521285    -1.5173088      0.49107117     0.15273577     45579.126    
    113000   0.99552549    -1.9790841      0.0026084888   0.17870101     36904.95     
    114000   1.005938      -2.4767232     -0.52240985     0.19562713     30744.692    
    115000   1.0057439     -3.0053329     -1.0964825      0.20611932     26221.09     
    116000   1.0054964     -3.4754125     -1.414226       0.32619489     22888.839    
    117000   1.0102901     -3.8780451     -1.4875416      0.57441688     20568.577    
    118000   1.0067014     -4.1853942     -1.528019       0.80914007     19144.24     
    119000   0.99332672    -4.3835688     -1.5883019      0.95314351     18489.06     
    120000   0.99447552    -4.4935437     -1.6309706      1.0140445      18251.763    
    121000   0.99693626    -4.546587      -1.6372556      1.0518353      18148.764    
    122000   1.0046252     -4.5568814     -1.644407       1.042583       18201.191    
    123000   0.99992235    -4.6048831     -1.7594107      1.000629       18155.529    
    124000   0.9826852     -4.6265669     -1.809          0.999858       18141.829    
    125000   0.9816541     -4.628229      -1.835633       0.98281292     18134.705    
    126000   0.9909325     -4.6427886     -1.7663338      1.0379001      18081.936    
    127000   1.0036781     -4.6998595     -1.8436889      1.0093087      18067.145    
    128000   0.99208105    -4.7161054     -1.8834258      1.0067518      18031.278    
    129000   0.99855707    -4.7358199     -1.8779094      1.0227605      17953.87     
    130000   0.99281603    -4.7365945     -1.9093376      1.005303       17969.641    
    131000   0.99184017    -4.7584903     -1.9704161      0.9733331      18036.708    
    132000   1.0008298     -4.7786254     -1.9933264      0.96430184     17978.018    
    133000   0.99392349    -4.8045903     -1.9873224      0.99985317     17910.286    
    134000   1.0108928     -4.7983959     -1.8854997      1.0464806      18017.569    
    135000   1.0054613     -4.8114576     -1.9148886      1.0451744      17934.421    
    136000   1.0034655     -4.8588456     -2.0279604      1.0029063      17846.414    
    137000   1.0095651     -4.8675544     -2.056243       0.98046651     17859.381    
    138000   0.99725614    -4.8627287     -2.016221       1.021483       17851.411    
    139000   1.0074539     -4.8854254     -2.1174261      0.94852477     17889.423    
    140000   1.0091028     -4.8952759     -2.0831421      0.98276174     17838.493    
    141000   0.99306868    -4.9123052     -2.1010353      0.99918379     17858.568    
    142000   0.9844256     -4.8942388     -2.1389888      0.96329239     17920.553    
    143000   0.99787309    -4.8923147     -1.9994254      1.0552178      17862.258    
    144000   0.99138403    -4.9378319     -2.1192857      1.0113556      17774.494    
    145000   1.0053166     -4.9110561     -2.1428813      0.95134573     17884.357    
    146000   0.99843514    -4.9495605     -2.0888383      1.03623        17759.508    
    147000   1.0016727     -4.9337653     -2.1659504      0.95782708     17835.298    
    148000   1.0125351     -4.9047656     -2.0833493      0.97911331     17961.97     
    149000   0.99156252    -4.968228      -2.2808486      0.91225082     17760.431    
    150000   0.99844005    -4.9523721     -2.1545162      0.98619161     17799.929    
    151000   1.0089698     -4.9597777     -2.0582898      1.0547891      17766.548    
    152000   0.99551147    -4.9433761     -2.0909574      1.0303451      17809.603    
    153000   0.99693476    -4.9441263     -2.1461406      0.98774357     17804.594    
    154000   0.99340959    -4.9813009     -2.1385316      1.0276628      17770.743    
    155000   1.0028553     -4.9510647     -2.0489638      1.0599595      17804.497    
    156000   1.0037288     -4.9713777     -2.1965875      0.96405844     17774.509    
    157000   1.0007756     -4.9461533     -2.1872901      0.94964888     17880.765    
    158000   0.99787651    -4.9587223     -2.0543378      1.067008       17810.258    
    159000   1.0103904     -4.970762      -2.1264919      1.008132       17794.055    
    160000   0.99594828    -4.9658471     -2.1894518      0.97257088     17803.205    
    161000   0.98784941    -4.983059      -2.1645185      1.0151743      17778.058    
    162000   1.0009877     -4.9796567     -2.2466604      0.93304875     17820.024    
    163000   0.99837903    -4.959238      -2.1038086      1.028251       17828.934    
    164000   1.0054194     -4.9610642     -2.0951789      1.0291534      17811.938    
    165000   0.99881244    -4.9939039     -2.1535176      1.0226931      17718.671    
    166000   0.99587332    -4.9598169     -2.1611156      0.98550624     17876.626    
    167000   1.0013111     -4.9704356     -2.1558349      0.9924636      17856.636    
    168000   1.00308       -5.0011701     -2.1022898      1.0639938      17691.851    
    169000   0.9981785     -5.003236      -2.2195019      0.97805586     17758.488    
    170000   0.9957864     -5.002207      -2.2441076      0.95891171     17802.641    
    171000   0.99464549    -4.9930912     -2.226932       0.9673084      17784.473    
    172000   0.9957385     -5.0044109     -2.1710265      1.0212067      17712.847    
    173000   1.012648      -5.0058484     -2.1578059      1.0117125      17736.234    
    174000   0.99096176    -5.0221401     -2.1614713      1.0478088      17706.991    
    175000   0.99017348    -4.9952191     -2.2398116      0.96231551     17820.012    
    176000   0.99181934    -5.0238334     -2.2809423      0.95690456     17709.369    
    177000   0.99481978    -4.9950004     -2.1549183      1.0251269      17751.462    
    178000   1.0119827     -5.0179188     -2.1899501      0.99655168     17747.645    
    179000   1.0035948     -5.0159101     -2.20577        0.9936708      17727.805    
    180000   1.0042652     -5.0092689     -2.2391056      0.95919926     17788.108    
    181000   0.99523715    -5.0442186     -2.227868       1.0130433      17638.608    
    182000   1.0180555     -5.0352425     -2.152821       1.0337852      17700.576    
    183000   1.0024544     -5.0470028     -2.2153533      1.0137547      17685.807    
    184000   0.99821461    -5.0326135     -2.3027307      0.93801743     17740.682    
    185000   1.0008746     -5.0337228     -2.2141219      1.0044488      17719.571    
    186000   0.99996185    -5.0272803     -2.1903859      1.0185945      17720.835    
    187000   0.99620747    -5.0283616     -2.1686491      1.0388256      17745.434    
    188000   1.0001358     -5.0294687     -2.1218282      1.073839       17695.295    
    189000   0.9976125     -5.0486775     -2.2671109      0.98082368     17690.226    
    190000   0.99783619    -5.0518737     -2.21661        1.0231192      17663.019    
    191000   1.0001059     -5.039114      -2.2959169      0.94536569     17752.406    
    192000   1.0037081     -5.0579182     -2.2067984      1.0283508      17665.696    
    193000   0.98990749    -5.0393637     -2.2690044      0.97948716     17719.179    
    194000   1.0011246     -5.0450046     -2.2615777      0.97536115     17742.138    
    195000   1.0000811     -5.0615426     -2.2574942      0.99691461     17658.996    
    196000   1.0005394     -5.0480972     -2.2785142      0.96789387     17698.169    
    197000   0.99460225    -5.0382509     -2.1902319      1.0338795      17709.079    
    198000   1.0109486     -5.0486509     -2.1247104      1.0775137      17635.973    
    199000   1.013302      -5.0428808     -2.2245657      0.99143744     17680.801    
    200000   0.99690895    -5.054572      -2.1693381      1.0634964      17644.392    
    201000   1.004496      -5.0395813     -2.3091354      0.93009115     17763.295    
    202000   0.98676378    -5.0108064     -2.1944501      1.014602       17780.69     
    203000   1.0149304     -5.0481858     -2.1132163      1.0830687      17608.55     
    204000   1.0182777     -5.0599456     -2.1536496      1.0568084      17615.683    
    205000   1.011417      -5.0567281     -2.188039       1.0332917      17659.705    
    206000   0.98743544    -5.0410364     -2.2465332      1.001275       17709.128    
    207000   0.98013728    -5.039129      -2.260492       0.99709581     17716.742    
    208000   1.0056403     -5.025603      -2.2716527      0.94633907     17769.129    
    209000   1.0026806     -5.0299202     -2.2248483      0.98947902     17752.466    
    210000   1.0052793     -5.0368891     -2.2063908      1.0089115      17698.609    
Loop time of 302.851 on 8 procs for 100000 steps with 13500 atoms

Performance: 142644.190 tau/day, 330.195 timesteps/s, 4.458 Matom-step/s
95.2% CPU use with 8 MPI tasks x no OpenMP threads

MPI task timing breakdown:
Section |  min time  |  avg time  |  max time  |%varavg| %total
---------------------------------------------------------------
Pair    | 140.36     | 148.26     | 156.65     |  42.7 | 48.95
Neigh   | 64.81      | 67.336     | 70.132     |  21.0 | 22.23
Comm    | 54.835     | 65.925     | 76.366     |  84.8 | 21.77
Output  | 0.33097    | 0.34299    | 0.35534    |   1.6 |  0.11
Modify  | 17.67      | 17.8       | 18.036     |   3.3 |  5.88
Other   |            | 3.19       |            |       |  1.05

Nlocal:         1687.5 ave        1728 max        1665 min
Histogram: 1 2 2 0 1 0 1 0 0 1
Nghost:        4147.12 ave        4197 max        4106 min
Histogram: 1 2 1 0 1 0 0 0 2 1
Neighs:          96984 ave      101788 max       93833 min
Histogram: 1 1 1 2 1 1 0 0 0 1

Total # of neighbors = 775872
Ave neighs/atom = 57.472
Neighbor list builds = 14783
Dangerous builds = 0
Total wall time: 0:08:02
