LAMMPS (22 Jul 2025 - Update 2)
# LAMMPS input for LJ binary mixture with Widom insertion
# Equal sigma, different epsilon

# Initialize
units           lj
atom_style      atomic
boundary        p p p

# Create simulation box
lattice         fcc 0.8
Lattice spacing in x,y,z = 1.7099759 1.7099759 1.7099759
region          box block 0 15 0 15 0 15
create_box      2 box
Created orthogonal box = (0 0 0) to (25.649639 25.649639 25.649639)
  2 by 2 by 2 MPI processor grid
create_atoms    1 box
Created 13500 atoms
  using lattice units in orthogonal box = (0 0 0) to (25.649639 25.649639 25.649639)
  create_atoms CPU = 0.001 seconds

# Set masses (both equal to 1.0 in reduced units)
mass            1 1.0
mass            2 1.0

# Set up 50:50 mixture
set             group all type/fraction 2 0.5 12345
Setting atom values ...
  6702 settings made for type/fraction

# Define groups
group           typeA type 1
6798 atoms in group typeA
group           typeB type 2
6702 atoms in group typeB

# LJ parameters
pair_style      lj/cut 3.0
pair_modify     tail yes
pair_coeff      1 1 0.8 1.0    # A-A interaction
pair_coeff      2 2 1.2 1.0    # B-B interaction
pair_coeff      1 2 0.2 1.0 # A-B interaction

# Initial velocities
velocity        all create 5.0 14523 dist gaussian

# Neighbor list
neighbor        0.3 bin
neigh_modify    every 1 delay 0 check yes

# Time integration (NPT)
fix             1 all npt temp 5.0 5.0 $(100*dt) iso 1.0 1.0 $(1000*dt)
fix             1 all npt temp 5.0 5.0 0.5 iso 1.0 1.0 $(1000*dt)
fix             1 all npt temp 5.0 5.0 0.5 iso 1.0 1.0 5
timestep        0.005

# Output including enthalpy
thermo_style    custom step temp pe ke etotal press density enthalpy vol
thermo          1000

# Equilibration
run             10000
Generated 0 of 1 mixed pair_coeff terms from geometric mixing rule
Neighbor list info ...
  update: every = 1 steps, delay = 0 steps, check = yes
  max neighbors/atom: 2000, page size: 100000
  master list distance cutoff = 3.3
  ghost atom cutoff = 3.3
  binsize = 1.65, bins = 16 16 16
  1 neighbor lists, perpetual/occasional/extra = 1 0 0
  (1) pair lj/cut, perpetual
      attributes: half, newton on
      pair build: half/bin/atomonly/newton
      stencil: half/bin/3d
      bin: standard
Per MPI rank memory allocation (min/avg/max) = 3.606 | 3.606 | 3.606 Mbytes
   Step          Temp          PotEng         KinEng         TotEng         Press         Density        Enthalpy        Volume    
         0   5             -4.0407837      7.4994444      3.4586608     -0.088736676    0.8            3.3477399      16875        
      1000   5.0116256     -1.1284515      7.5168815      6.38843        7.2581452      0.62820312     17.942249      21489.865    
      2000   4.9996673     -1.0442104      7.4989455      6.4547351      5.0391527      0.51896374     16.164764      26013.378    
      3000   5.015087      -0.97922669     7.5220733      6.5428466      3.7128038      0.44233641     14.936467      30519.758    
      4000   4.9824496     -0.84298432     7.4731208      6.6301365      3.0183047      0.384944       14.47103       35070.036    
      5000   5.0113495     -0.79018031     7.5164674      6.7262871      2.4794751      0.34016215     14.015385      39686.955    
      6000   5.0064819     -0.71739174     7.5091666      6.7917748      2.1022538      0.30464955     13.692339      44313.212    
      7000   4.9933806     -0.64953606     7.489516       6.83998        1.8578414      0.27593869     13.572785      48923.91     
      8000   5.0394972     -0.60851879     7.5586858      6.950167       1.6483425      0.25264596     13.474485      53434.458    
      9000   4.9771269     -0.57096205     7.4651374      6.8941753      1.4718706      0.23365899     13.193401      57776.506    
     10000   5.0011349     -0.52018609     7.5011467      6.9809606      1.3661511      0.21819706     13.242049      61870.677    
Loop time of 20.389 on 8 procs for 10000 steps with 13500 atoms

Performance: 211879.342 tau/day, 490.461 timesteps/s, 6.621 Matom-step/s
95.9% CPU use with 8 MPI tasks x no OpenMP threads

MPI task timing breakdown:
Section |  min time  |  avg time  |  max time  |%varavg| %total
---------------------------------------------------------------
Pair    | 5.2799     | 5.4316     | 5.5256     |   3.4 | 26.64
Neigh   | 6.2968     | 6.4065     | 6.4571     |   2.3 | 31.42
Comm    | 6.8305     | 7.0034     | 7.2504     |   5.9 | 34.35
Output  | 0.00025621 | 0.00028247 | 0.00040854 |   0.0 |  0.00
Modify  | 1.1561     | 1.2026     | 1.2418     |   3.0 |  5.90
Other   |            | 0.3447     |            |       |  1.69

Nlocal:         1687.5 ave        1709 max        1640 min
Histogram: 1 0 1 0 0 0 1 0 2 3
Nghost:        2311.88 ave        2354 max        2282 min
Histogram: 1 3 0 0 1 0 0 2 0 1
Neighs:        27374.6 ave       28492 max       25803 min
Histogram: 1 0 1 1 0 0 0 3 1 1

Total # of neighbors = 218997
Ave neighs/atom = 16.222
Neighbor list builds = 3282
Dangerous builds = 0

dump            1 all custom 1000 dump.lammpstrj id type x y z
dump_modify     1 sort id

# production
thermo_style    custom step temp pe enthalpy press vol
thermo          1000
run             100000
Generated 0 of 1 mixed pair_coeff terms from geometric mixing rule
Per MPI rank memory allocation (min/avg/max) = 3.637 | 3.637 | 3.638 Mbytes
   Step          Temp          PotEng        Enthalpy        Press          Volume    
     10000   5.0011349     -0.52018609     13.242049      1.3661511      61870.677    
     11000   5.0411342     -0.49469202     13.242163      1.2701137      65641.475    
     12000   5.0202727     -0.47146939     13.149315      1.1917893      68995.084    
     13000   4.9129248     -0.45705019     12.849938      1.1146775      71917.654    
     14000   5.0211363     -0.43492952     13.17855       1.1044799      74344.037    
     15000   4.9699285     -0.46034198     12.784301      1.0250725      76257.133    
     16000   4.9619062     -0.42567404     12.937241      1.0292254      77658.596    
     17000   5.0551736     -0.44082186     13.003728      1.0061218      78660.202    
     18000   5.0193019     -0.40942529     13.065851      1.0159719      79020.782    
     19000   5.058158      -0.41322919     13.150144      1.0162652      79394.067    
     20000   4.9982734     -0.42986897     12.886138      0.98722024     79575.511    
     21000   4.9496518     -0.41299048     12.896633      1.0000802      79450.519    
     22000   4.9457699     -0.40869289     12.934075      1.0106675      79138.737    
     23000   5.0243677     -0.42005097     13.069134      1.0168971      79032.661    
     24000   5.0210794     -0.41446897     13.060176      0.9988452      80331.14     
     25000   5.0154167     -0.41300434     13.019266      1.0097099      79013.771    
     26000   5.050006      -0.42581878     13.052089      1.0045263      79337.605    
     27000   4.9622985     -0.40812355     12.904807      0.98960736     80077.681    
     28000   4.9971707     -0.42307556     12.995864      1.0173566      78606.141    
     29000   5.0155455     -0.4138236      13.08332       1.0188355      79163.089    
     30000   4.9316179     -0.43144516     12.714753      0.97008482     80009.309    
     31000   4.9953556     -0.40340631     13.062016      1.0211739      78962.796    
     32000   5.0486977     -0.42654594     13.032383      1.0007031      79411.159    
     33000   5.0128361     -0.42385212     12.920074      0.98472522     79860.44     
     34000   4.9776728     -0.44095533     12.791046      0.99531228     78208.234    
     35000   4.9933358     -0.41152977     13.002029      1.0087077      79285.091    
     36000   5.0534301     -0.43625573     13.002287      0.991292       79790.76     
     37000   5.0372261     -0.41069866     13.127008      1.0198044      79194.37     
     38000   5.0105639     -0.42607518     12.993882      1.0074084      79126.808    
     39000   4.93502       -0.41864602     12.805021      0.98138359     80083.615    
     40000   4.9976032     -0.42672774     12.897195      0.99284796     79245.76     
     41000   5.0242353     -0.43088267     12.984993      1.0087138      78695.355    
     42000   5.0237894     -0.43368842     12.93859       0.98350907     80122.858    
     43000   5.0095214     -0.41125691     13.047441      1.0117307      79326.576    
     44000   4.9531086     -0.42038531     12.856892      1.0021736      78778.995    
     45000   4.9792175     -0.41826578     12.920513      0.99309932     79802.521    
     46000   5.0393093     -0.43170724     12.975121      0.99575985     79289.935    
     47000   4.9916324     -0.40885344     13.029389      1.0183756      78893.493    
     48000   4.9854653     -0.40989036     12.9615        0.99129103     80264.594    
     49000   5.0130564     -0.41620446     13.000984      1.0077207      79015.128    
     50000   5.018321      -0.43372698     12.912428      0.99614229     78863.855    
     51000   4.9755215     -0.4157419      12.877117      0.98627761     79801.824    
     52000   4.9768015     -0.42476744     12.856037      0.9905874      79264.176    
     53000   5.0494642     -0.40633761     13.154383      1.0238102      78945.943    
     54000   5.0228104     -0.41177991     13.000967      0.98465397     80604.664    
     55000   4.9474482     -0.42346747     12.8077        0.9919789      79076.638    
     56000   5.0364259     -0.44256095     12.951537      1.0006492      78789.104    
     57000   4.9989593     -0.39758658     13.097304      1.0141199      79832.374    
     58000   5.0000498     -0.41885231     12.920409      0.98971948     79655.419    
     59000   5.0220061     -0.42406163     13.037093      1.017862       78632.963    
     60000   5.0413382     -0.41461812     13.116875      1.0139547      79486.422    
     61000   4.9699582     -0.41430952     12.889249      0.98663996     80033.086    
     62000   5.0221797     -0.41619043     13.056819      1.0223621      78439.939    
     63000   5.0034959     -0.40684385     13.022381      1.0032713      79720.461    
     64000   4.9697298     -0.43330615     12.813551      0.98148061     79678.593    
     65000   4.9975708     -0.4296403      12.881016      0.99233913     79106.574    
     66000   5.0231927     -0.41355578     13.07072       1.0090246      79607.191    
     67000   5.0468036     -0.42669109     13.026894      0.99089691     80162.929    
     68000   4.9359558     -0.41532137     12.843158      1.0051645      78637.65     
     69000   5.0006059     -0.417296       12.937343      0.99237099     79640.44     
     70000   5.0200996     -0.41917151     13.012819      0.99765403     79869.759    
     71000   4.9679404     -0.43040089     12.853514      1.000429       78705.739    
     72000   4.9370778     -0.41653787     12.821184      0.98500765     79939.306    
     73000   5.0255699     -0.41446426     13.053945      1.0019543      79907.115    
     74000   4.9708463     -0.43805809     12.862026      1.0036432      78612.548    
     75000   4.9776058     -0.40463462     13.004255      1.0053413      79804.699    
     76000   5.0956163     -0.41867853     13.189228      1.0110716      79646.342    
     77000   5.0357073     -0.42679291     12.984661      1.001193       78994.866    
     78000   5.0287933     -0.43288556     12.962305      0.99573348     79348.088    
     79000   4.9680333     -0.41626435     12.855266      0.97817086     80323.845    
     80000   4.988325      -0.42648211     12.930918      1.0081979      78673.843    
     81000   5.0820146     -0.42102336     13.111187      1.00724        79208.204    
     82000   5.0223488     -0.40653777     13.048583      0.99794538     80113.698    
     83000   4.9416935     -0.4279245      12.828974      0.99632509     79197.294    
     84000   4.9981323     -0.4204411      12.972641      1.0039208      79291.036    
     85000   5.0442654     -0.41073343     13.120311      1.0090051      79811.577    
     86000   4.9855622     -0.42115797     12.894247      0.99157879     79477.101    
     87000   5.0382623     -0.42148747     13.099822      1.0329748      77950.04     
     88000   4.9684892     -0.42964589     12.822373      0.98446282     79533.532    
     89000   4.9619366     -0.41795236     12.887865      0.99212947     79784.707    
     90000   5.0097833     -0.44024075     12.894988      0.98974545     79399.199    
     91000   5.0169061     -0.41868523     13.004458      1.0022847      79446.101    
     92000   5.0233374     -0.41278426     13.043706      1.0033089      79683.902    
     93000   5.0087932     -0.42739983     12.946598      1.0026342      78920.527    
     94000   4.9810586     -0.42413183     12.913538      0.99497257     79599.762    
     95000   5.0279051     -0.41604654     13.017651      0.98700578     80594.646    
     96000   4.9991597     -0.43159251     12.884155      0.99862611     78645.154    
     97000   5.018075      -0.4292293      12.971411      0.99888086     79389.005    
     98000   5.0012202     -0.40689381     13.041659      1.0048743      79898.808    
     99000   5.0539976     -0.42489244     13.085265      1.0144625      78910.016    
    100000   4.9695477     -0.41827717     12.937669      1.0029116      79448.067    
    101000   5.0196893     -0.41846682     13.023918      0.9970983      80063.331    
    102000   5.0338691     -0.43883174     12.935793      1.0007882      78567.211    
    103000   5.0286029     -0.43421896     12.933967      0.98946197     79486.468    
    104000   4.9832563     -0.42958753     12.867495      0.9848323      79817.797    
    105000   4.9727866     -0.40873667     12.971178      1.0123249      78964.153    
    106000   5.0727744     -0.42576455     13.117865      1.0099717      79331.857    
    107000   5.0145393     -0.41146345     13.018876      0.99625147     80072.841    
    108000   4.9826645     -0.43747895     12.878372      1.0037356      78578.966    
    109000   4.9293096     -0.41304177     12.815617      0.98791033     79739.803    
    110000   5.0338756     -0.4426109      12.932171      0.98498845     79829.491    
Loop time of 156.493 on 8 procs for 100000 steps with 13500 atoms

Performance: 276051.114 tau/day, 639.007 timesteps/s, 8.627 Matom-step/s
91.7% CPU use with 8 MPI tasks x no OpenMP threads

MPI task timing breakdown:
Section |  min time  |  avg time  |  max time  |%varavg| %total
---------------------------------------------------------------
Pair    | 31.104     | 31.414     | 31.657     |   3.6 | 20.07
Neigh   | 54.465     | 54.74      | 55.064     |   2.8 | 34.98
Comm    | 42.097     | 42.538     | 43.053     |   5.4 | 27.18
Output  | 0.23808    | 0.25477    | 0.26694    |   2.0 |  0.16
Modify  | 22.238     | 22.326     | 22.384     |   1.0 | 14.27
Other   |            | 5.221      |            |       |  3.34

Nlocal:         1687.5 ave        1719 max        1637 min
Histogram: 1 0 0 1 0 1 1 3 0 1
Nghost:        2089.88 ave        2139 max        2045 min
Histogram: 2 0 0 1 1 1 1 1 0 1
Neighs:        21202.6 ave       22081 max       20202 min
Histogram: 1 0 0 2 0 1 2 1 0 1

Total # of neighbors = 169621
Ave neighs/atom = 12.564519
Neighbor list builds = 32570
Dangerous builds = 0

write_data      final_config_1.data
System init for write_data ...
Generated 0 of 1 mixed pair_coeff terms from geometric mixing rule
WARNING: Not all mixed pair coeffs generated from mixing. Use write_data with 'pair ij' option to store all pair coeffs. (src/write_data.cpp:364)

unfix 1
fix 2 all npt temp 1.0 1.0 $(100*dt) iso 1.0 1.0 $(1000*dt)
fix 2 all npt temp 1.0 1.0 0.5 iso 1.0 1.0 $(1000*dt)
fix 2 all npt temp 1.0 1.0 0.5 iso 1.0 1.0 5

run 100000
Generated 0 of 1 mixed pair_coeff terms from geometric mixing rule
Per MPI rank memory allocation (min/avg/max) = 5.069 | 5.069 | 5.07 Mbytes
   Step          Temp          PotEng        Enthalpy        Press          Volume    
    110000   5.0338756     -0.4426109      12.932171      0.98498845     79829.491    
    111000   1.0076117     -1.1027724      1.0394731      0.14499232     58745.791    
    112000   1.0049401     -1.5593681      0.4722693      0.15533875     45568.638    
    113000   1.000517      -2.0141295     -0.080201224    0.15853697     36893.996    
    114000   1.0029577     -2.4990175     -0.62916642     0.16054585     30736.392    
    115000   1.0018004     -3.0055703     -1.095221       0.21009707     26201.037    
    116000   1.0036193     -3.4873162     -1.4139321      0.33532819     22869.833    
    117000   0.99861858    -3.8873421     -1.5723259      0.53723773     20535.024    
    118000   1.0030532     -4.1737096     -1.4982942      0.82641142     19128.226    
    119000   1.0059743     -4.3179508     -1.3856854      1.0384883      18503.928    
    120000   0.99539757    -4.4165268     -1.6130912      0.96436572     18344.776    
    121000   1.0045447     -4.4601613     -1.5238951      1.0570672      18257.184    
    122000   0.9932324     -4.5027393     -1.6449029      1.0122407      18245.981    
    123000   0.99279271    -4.5682622     -1.7512032      0.98633448     18176.12     
    124000   0.99639332    -4.5788496     -1.7595433      0.9836819      18181.858    
    125000   0.99653046    -4.6237612     -1.882185       0.9279559      18139.904    
    126000   1.0111684     -4.6337581     -1.7149235      1.0446787      18120.046    
    127000   1.0019257     -4.6781578     -1.7773013      1.0488146      17995.62     
    128000   1.001611      -4.6984225     -1.8796081      0.98533137     18037.458    
    129000   0.9993201     -4.7140897     -1.8643971      1.0088117      18076.828    
    130000   1.0003717     -4.7507722     -1.877384       1.0301933      17991.49     
    131000   1.0013639     -4.7569194     -1.8320143      1.0704995      17944.99     
    132000   0.98785076    -4.7724983     -1.9479935      1.0083027      17979.043    
    133000   0.99329808    -4.804167      -2.0613737      0.94207301     17954.991    
    134000   0.99847259    -4.7598721     -1.8900031      1.0248649      18076.195    
    135000   1.0142753     -4.8181169     -1.9551736      1.0106663      17921.029    
    136000   0.99559648    -4.813502      -1.9784639      1.0096506      17940.542    
    137000   0.99988663    -4.8395757     -2.0280509      0.98984001     17891.154    
    138000   0.99833843    -4.8102911     -1.9643688      1.0126698      17977.326    
    139000   1.0098378     -4.8752716     -2.0286786      1.0058098      17877.439    
    140000   0.98764168    -4.8639354     -2.0770961      0.98404035     17909.904    
    141000   1.0053733     -4.8742218     -2.0631134      0.98354159     17887.054    
    142000   1.0078327     -4.8645012     -1.9746832      1.0385934      17914.076    
    143000   0.99935813    -4.9223788     -2.0343419      1.0523624      17819.903    
    144000   1.0029126     -4.9034095     -2.0633345      1.0109221      17838.702    
    145000   1.0103127     -4.9214663     -2.1050972      0.9809924      17903.979    
    146000   1.0059009     -4.9395698     -2.1657397      0.95889006     17810.928    
    147000   1.0006101     -4.9129767     -2.0660282      1.0184401      17843.907    
    148000   1.0060712     -4.9589956     -2.2201951      0.93267367     17800.839    
    149000   0.99650064    -4.9467459     -2.1339583      0.99945406     17804.709    
    150000   1.0011424     -4.9710714     -2.1836093      0.97352875     17831.119    
    151000   0.9995666     -4.9370779     -2.1469675      0.97532505     17867.65     
    152000   0.99437349    -4.9859604     -2.1950861      0.99013804     17716.955    
    153000   1.0052988     -4.9995528     -2.1606397      1.014423       17714.046    
    154000   1.0007412     -4.9724147     -2.0840249      1.0550959      17751.709    
    155000   0.99704834    -4.9971633     -2.2198582      0.97616156     17727.482    
    156000   1.0015609     -4.9543685     -2.1339023      0.99881702     17817.265    
    157000   1.0073045     -4.9871046     -2.2230983      0.951915       17772.257    
    158000   0.99903656    -4.9959444     -2.1724766      1.0093977      17721.284    
    159000   0.97976603    -4.9881153     -2.1719757      1.0256376      17724.674    
    160000   1.0006764     -4.9962313     -2.2240344      0.9670958      17746.393    
    161000   0.9928773     -4.9936821     -2.1048813      1.0670746      17706.855    
    162000   0.98951045    -4.9971652     -2.240943       0.9684283      17732.751    
    163000   0.99154664    -5.0105499     -2.1828512      1.021761       17711.186    
    164000   0.99480234    -4.9942961     -2.2002443      0.99104969     17735.18     
    165000   1.0009097     -5.0322958     -2.2742965      0.95914547     17688.735    
    166000   0.99271515    -5.0245389     -2.2305394      0.99731174     17665.49     
    167000   1.0046864     -5.0322793     -2.1621346      1.0429712      17645.318    
    168000   1.0127973     -5.0389538     -2.1434786      1.050671       17685.164    
    169000   1.0063871     -5.0338825     -2.1856296      1.0225306      17675.348    
    170000   0.99864748    -5.0464047     -2.1922926      1.0350574      17689.259    
    171000   1.0004581     -5.0313137     -2.3081699      0.92973209     17752.067    
    172000   1.0006193     -5.0369784     -2.2497307      0.98021642     17717.316    
    173000   0.99538589    -5.0276214     -2.2613973      0.96937625     17731.974    
    174000   1.0003018     -5.0432079     -2.2107243      1.0147058      17723.282    
    175000   0.98312025    -5.043316      -2.2828268      0.98274406     17664.715    
    176000   0.99785299    -5.0482665     -2.1975204      1.0359659      17645.413    
    177000   1.0061923     -5.0173685     -2.1688143      1.0171595      17776.561    
    178000   1.0111773     -5.0301385     -2.079788       1.0938007      17695.096    
    179000   1.0061911     -5.020376      -2.1662255      1.0243769      17725.089    
    180000   0.99487397    -5.0332435     -2.2325829      0.99830872     17694.138    
    181000   0.99605988    -5.0426115     -2.1346037      1.0831052      17624.685    
    182000   1.0080811     -5.0445899     -2.222288       1.0040066      17618.355    
    183000   1.0067824     -5.0183245     -2.1713776      1.0189531      17712.247    
    184000   0.99883118    -5.0359477     -2.2707281      0.9653155      17720.25     
    185000   1.003657      -5.055273      -2.2202099      1.016068       17666.931    
    186000   0.99811952    -5.0544136     -2.3187601      0.94393383     17714.058    
    187000   1.0123341     -5.0675704     -2.2207116      1.0154201      17661.997    
    188000   1.001896      -5.0373428     -2.2896768      0.94413883     17800.984    
    189000   0.99758715    -5.0492443     -2.2159987      1.0202687      17690.607    
    190000   1.001146      -5.0556042     -2.2872471      0.96560221     17710.313    
    191000   1.0022654     -5.0362627     -2.161075       1.047229       17685.399    
    192000   0.98706053    -5.0445706     -2.2445097      1.0072047      17686.899    
    193000   1.0045881     -5.0606157     -2.1550698      1.0701171      17646.17     
    194000   0.99937521    -5.0345295     -2.1952665      1.0205224      17730.333    
    195000   0.99883227    -5.0372196     -2.1294155      1.0754796      17694.897    
    196000   1.0066106     -5.0562914     -2.3503721      0.90993528     17745.829    
    197000   0.99682534    -5.0443988     -2.2613747      0.98126514     17718.563    
    198000   0.99178571    -5.0322873     -2.2570751      0.98016558     17734.954    
    199000   0.98142228    -5.0642673     -2.3334133      0.95997882     17702.682    
    200000   0.99780974    -5.0426501     -2.346097       0.91122676     17777.482    
    201000   0.9941324     -5.0171117     -2.2246996      0.98721317     17795.421    
    202000   0.99742311    -5.065375      -2.2552436      1.0035148      17678.316    
    203000   0.99516837    -5.0434689     -2.2158113      1.0192598      17682.157    
    204000   1.0081886     -5.0330673     -2.1791181      1.0222768      17719.28     
    205000   0.98951516    -5.0456731     -2.2334448      1.0141295      17679.089    
    206000   0.99637571    -5.0558492     -2.289727       0.97129263     17674.937    
    207000   0.99946322    -5.04091       -2.2575651      0.97947633     17700.811    
    208000   0.98375616    -5.0422342     -2.24945        1.0038312      17715.13     
    209000   1.002773      -5.0358407     -2.2410146      0.98245042     17736.775    
    210000   0.99810409    -5.0573442     -2.348588       0.92223546     17737.441    
Loop time of 354.698 on 8 procs for 100000 steps with 13500 atoms

Performance: 121793.695 tau/day, 281.930 timesteps/s, 3.806 Matom-step/s
90.0% CPU use with 8 MPI tasks x no OpenMP threads

MPI task timing breakdown:
Section |  min time  |  avg time  |  max time  |%varavg| %total
---------------------------------------------------------------
Pair    | 132.44     | 141.7      | 150.34     |  54.0 | 39.95
Neigh   | 61.022     | 63.975     | 66.832     |  27.7 | 18.04
Comm    | 74.968     | 86.513     | 98.946     |  92.9 | 24.39
Output  | 0.52449    | 0.55551    | 0.5839     |   2.9 |  0.16
Modify  | 50.371     | 50.58      | 50.845     |   2.2 | 14.26
Other   |            | 11.37      |            |       |  3.21

Nlocal:         1687.5 ave        1755 max        1618 min
Histogram: 1 2 1 0 0 0 0 1 1 2
Nghost:        4062.88 ave        4127 max        4011 min
Histogram: 1 2 0 1 1 0 1 1 0 1
Neighs:          96820 ave      105290 max       87700 min
Histogram: 1 0 3 0 0 0 0 1 2 1

Total # of neighbors = 774560
Ave neighs/atom = 57.374815
Neighbor list builds = 14759
Dangerous builds = 0
Total wall time: 0:08:51
