3987
Lattice="43.040001 0.0 0.0 0.0 43.040001 0.0 0.0 0.0 43.040001"
1 5.21888 2.74996 17.5138
1 15.3816 19.0557 22.9323
1 6.45683 29.9744 17.4627
1 36.6039 7.91552 6.79107
1 21.6976 33.1631 4.43077
1 15.7108 29.6855 39.5321
1 15.2843 22.3094 14.171
1 8.04557 25.877 1.19167
1 30.5706 39.1716 32.5708
1 17.6232 35.0891 1.71413
1 34.395 34.2124 32.9279
1 16.9699 25.02 11.4579
1 33.2668 19.1486 26.7789
1 30.4855 40.682 35.8633
1 38.565 11.2104 28.7081
1 38.9036 8.54585 7.91992
1 23.6563 20.295 40.3359
1 38.4701 38.7397 17.7632
1 37.2151 13.7352 31.4303
1 32.2923 9.98507 3.51989
1 32.2465 7.95745 38.3331
1 7.05179 16.0119 20.1515
1 29.7381 39.8859 11.1017
1 14.9638 24.2039 19.5015
1 3.79795 30.1548 0.834062
1 36.7272 1.37787 29.8525
1 24.3017 34.0576 41.9555
1 6.69241 19.0899 22.6281
1 14.9198 22.0411 20.6808
1 25.735 40.5586 28.1771
1 15.2696 18.5362 15.0779
1 9.48054 5.36457 33.7519
1 35.1252 32.0379 33.3371
1 30.9985 11.0774 0.987017
1 23.7786 25.5368 35.2725
1 19.885 19.2374 17.8218
1 39.0183 38.9023 3.11662
1 40.7781 33.893 40.2291
1 18.2315 23.4378 7.8194
1 0.410479 16.1618 25.6643
1 5.004 29.5137 9.84849
1 20.0411 40.1081 17.8367
1 7.03344 28.7192 21.4097
1 20.8498 4.91818 30.546
1 18.2764 35.0973 27.984
1 26.4155 42.5649 0.161722
1 41.6141 14.862 26.7675
1 22.8352 24.5833 1.55727
1 2.45157 28.3517 18.8727
1 2.70658 31.2188 29.379
1 3.58511 10.0641 27.4083
1 32.1702 16.7475 34.3016
1 39.876 31.7107 4.2191
1 36.0256 13.3831 25.2113
1 37.3938 12.5318 30.4936
1 21.8696 30.0358 41.5506
1 4.48475 31.8956 32.7541
1 35.8414 9.25517 30.5058
1 38.4427 32.1039 20.3574
1 21.4607 10.5765 34.5438
1 27.0823 40.737 19.3579
1 3.12579 28.1693 27.2857
1 27.3915 42.908 33.357
1 34.4398 6.68757 42.8939
1 42.1985 35.1064 2.21496
1 7.45975 20.572 7.02636
1 28.2187 19.5114 42.4911
1 2.38128 32.9206 31.125
1 25.7408 8.47666 37.9427
1 31.8579 21.1378 41.6416
1 27.329 18.0653 28.1706
1 2.03768 28.3505 14.9264
1 23.734 3.27245 38.4735
1 27.124 7.92241 8.43122
1 23.674 3.96496 5.59864
1 7.5805 20.2148 1.2276
1 2.05539 32.2131 28.4549
1 2.35974 32.8737 8.1786
1 6.12442 16.8638 22.2934
1 11.2431 40.4255 8.74608
1 39.0649 35.7045 40.18
1 32.5747 34.5177 11.9608
1 23.101 20.7719 4.36112
1 6.51855 7.39025 18.8656
1 1.89419 34.5072 33.0313
1 34.964 3.51648 35.0668
1 41.726 1.07035 13.7868
1 35.178 20.7296 14.6207
1 4.42197 14.2044 25.8687
1 39.6442 25.8971 32.9063
1 13.668 6.96167 37.7719
1 15.7355 27.9754 18.6949
1 0.801577 24.7721 32.0155
1 3.42975 18.777 17.331
1 18.275 32.0839 42.7387
1 41.4897 37.4109 29.6905
1 11.5322 20.8306 9.51844
1 24.1856 22.6942 0.641942
1 7.28181 27.5619 16.6277
1 35.4904 42.0429 1.25329
1 13.7584 1.11292 11.6811
1 3.73571 35.4172 18.8157
1 14.9133 34.3407 0.953323
1 33.0049 0.535411 7.77833
1 42.5403 41.3249 19.1962
1 32.5406 11.9404 35.4522
1 21.1289 39.4791 22.2877
1 14.7725 9.88931 43.0963
1 33.303 2.4476 2.81378
1 36.7952 1.52498 19.38
1 27.4927 8.63627 15.1426
1 29.7547 25.9294 11.6316
1 32.5613 35.794 11.0972
1 41.6705 39.1839 23.6851
1 5.36274 8.58561 20.4535
1 20.3935 23.9487 18.6776
1 23.6777 11.8466 23.3075
1 15.5491 34.5783 27.6618
1 0.364883 13.6298 39.3285
1 10.2833 20.509 11.9913
1 5.14798 22.2759 13.5271
1 25.4542 35.7433 20.2211
1 34.4985 42.7012 0.410992
1 30.7742 20.9607 11.9097
1 33.757 9.76613 25.3167
1 26.496 39.5963 39.0811
1 24.526 31.4786 22.4375
1 25.0948 14.4037 7.01207
1 34.0761 6.72003 36.7332
1 16.8048 25.8682 39.386
1 22.1334 4.67089 13.3812
1 40.4361 2.09352 5.51744
1 27.7046 13.0229 36.3492
1 33.0009 21.2652 33.8668
1 28.9619 14.2806 12.9303
1 41.1522 2.13607 7.76786
1 8.09941 20.0843 5.82522
1 7.06219 20.8469 43.0481
1 17.3158 21.7243 41.2654
1 34.3591 22.1253 40.2825
1 16.5746 12.668 22.896
1 35.3964 28.6298 24.465
1 21.4731 8.05644 34.6826
1 38.829 19.8867 39.2126
1 15.6493 11.0542 10.3039
1 22.7574 5.94838 35.7722
1 25.9765 7.03368 2.97209
1 29.1721 18.3336 11.1006
1 4.105 5.97224 23.9443
1 33.7087 16.7039 33.9789
1 22.745 1.5536 5.22788
1 37.1386 32.4608 3.47796
1 20.0097 39.1614 18.9789
1 24.4964 22.0921 30.9079
1 14.2231 24.0345 30.8979
1 3.85663 8.2905 22.9029
1 8.15945 13.6989 17.4276
1 10.0924 24.033 7.96392
1 32.8463 8.82318 37.3861
1 22.3282 7.03955 12.6127
1 37.2022 18.5734 40.8764
1 28.8879 25.0816 19.7214
1 35.6393 11.1662 24.2935
1 8.79168 34.0289 37.4006
1 0.60238 23.3631 31.2918
1 40.4026 42.3714 25.4569
1 26.4999 33.9043 33.8439
1 12.7544 20.9238 7.51306
1 9.48557 36.9316 3.99755
1 22.8771 7.85118 6.22217
1 12.2942 32.6725 40.2662
1 13.6929 17.9592 42.8926
1 11.1984 33.6932 41.9561
1 24.0918 13.8052 24.6635
1 6.80814 1.46786 16.1636
1 37.7818 21.4074 31.93
1 7.04344 18.2029 21.7437
1 3.1198 41.5738 21.4741
1 17.5908 10.8562 21.4315
1 32.7475 26.7528 40.9492
1 33.7532 42.4786 20.2657
1 24.2759 9.4993 10.3687
1 39.9702 42.6183 0.802885
1 17.5977 25.4325 9.02648
1 4.94316 13.2801 9.08169
1 25.6311 0.25862 2.52087
1 18.6702 7.09032 21.5817
1 22.2447 21.33 24.369
1 20.5999 11.4377 5.80841
1 27.3576 2.96136 19.5646
1 13.4065 38.3185 5.12503
1 31.5694 13.1749 26.8611
1 1.39546 12.1075 37.4419
1 4.0287 23.8547 0.00135406
1 30.1571 27.6337 30.13
1 23.1992 28.091 22.2186
1 4.99355 9.46733 36.8091
1 15.2436 18.1592 17.6475
1 33.4204 7.47303 24.5073
1 15.5898 23.1548 13.1045
1 35.3385 36.9473 36.7775
1 20.9074 39.334 30.8546
1 34.1058 29.6411 32.5672
1 5.33073 21.9253 36.947
1 31.0306 41.6729 38.2453
1 39.6534 30.7715 35.2126
1 2.68464 20.3662 32.7868
1 32.4465 28.4625 42.4722
1 27.4586 5.21292 37.9584
1 19.8121 39.6145 20.2951
1 31.4098 20.9527 26.8584
1 8.36171 22.0632 20.6558
1 5.1007 3.72372 18.6581
1 8.9559 16.1696 8.6986
1 25.31 8.5966 9.89546
1 37.1432 35.3115 37.0222
1 17.378 27.7109 22.8328
1 37.0231 27.9917 40.738
1 6.68205 28.8398 12.4789
1 26.6031 37.0139 27.069
1 23.4497 41.7761 12.0839
1 23.1568 29.0816 31.5564
1 14.589 16.7284 8.96308
1 36.2837 5.72649 29.6794
1 11.674 16.5669 11.4174
1 40.996 35.537 1.42873
1 39.2253 3.67397 6.95142
1 29.8933 25.7157 42.0026
1 17.1399 28.2322 8.90895
1 33.4127 2.22487 21.5353
1 7.42817 29.6474 33.7122
1 19.6363 10.7995 0.550464
1 1.29837 12.4032 3.42475
1 42.7409 40.3042 0.609191
1 28.8467 12.0359 13.8949
1 2.69071 10.6231 36.2794
1 34.6678 23.3767 14.6326
1 37.6872 9.12166 28.0484
1 29.1698 25.668 30.3257
1 27.8544 12.6032 26.1319
1 26.4363 15.7654 11.8777
1 35.6466 18.6387 41.1022
1 26.0834 41.6633 1.11055
1 37.7523 17.4634 30.8675
1 14.1408 15.3323 4.09345
1 14.7878 24.1447 15.6575
1 12.2955 41.223 29.1145
1 2.58018 27.1311 14.5522
1 13.1637 7.91323 38.9102
1 40.8296 2.1807 22.7939
1 25.8667 42.877 31.4205
1 29.86 0.971257 39.1193
1 27.2556 8.49112 39.8866
1 20.6986 20.9749 20.9723
1 3.98992 25.936 28.0023
1 13.5504 4.8736 12.073
1 27.2156 20.4853 1.45452
1 5.40502 30.8511 13.5609
1 37.5931 13.2613 3.91662
1 0.445046 38.1179 40.6934
1 7.41046 31.8707 34.9593
1 42.4035 22.3898 36.844
1 22.1083 40.1894 24.8135
1 35.9329 35.1011 10.0961
1 24.9057 39.3039 26.4001
1 38.6561 37.4387 41.8683
1 11.35 27.1374 35.0872
1 25.9834 31.8954 22.9645
1 5.10812 38.6995 22.0419
1 41.6288 5.78072 11.8804
1 11.0181 9.91167 -0.0857005
1 37.3743 12.6311 23.025
1 28.9213 30.9362 11.2535
1 31.6399 23.1286 32.5183
1 12.1593 39.6591 6.78194
1 42.1524 8.25899 15.7464
1 17.5498 12.9516 7.81226
1 42.8276 36.141 26.3668
1 14.3854 32.297 41.6685
1 6.76737 11.0238 2.35982
1 34.7907 2.06862 20.9563
1 9.1959 24.3565 12.5081
1 14.6022 20.7296 4.2843
1 25.787 33.6043 12.8043
1 10.4555 12.4557 14.5777
1 30.5271 27.9533 25.1013
1 40.0627 35.0524 40.9127
1 4.45939 18.689 27.9493
1 18.9289 35.7565 15.4243
1 19.556 28.6159 23.6655
1 7.66715 20.4208 41.8487
1 26.2789 20.902 10.9963
1 28.672 35.2026 22.141
1 41.7738 28.7039 34.3788
1 22.3329 29.9659 30.9274
1 27.7198 26.1979 41.8354
1 3.83023 11.4597 27.013
1 6.39505 25.3066 32.2663
1 19.6645 43.1489 23.7258
1 3.56913 22.9694 38.2937
1 1.86351 35.7251 14.9737
1 22.515 12.0342 17.2107
1 6.68301 28.3658 13.9623
1 19.2068 10.6121 7.96875
1 11.1932 19.3293 40.4879
1 28.2857 12.313 37.4522
1 12.3161 4.97538 13.132
1 23.1308 12.5613 9.05557
1 38.366 27.657 33.9407
1 35.2901 6.43979 23.2999
1 34.6727 8.01743 32.8988
1 6.89885 40.5271 25.7808
1 37.7108 14.9814 31.0062
1 23.8139 31.6712 31.1631
1 27.1877 25.7241 26.0679
1 7.29058 4.78594 17.5144
1 20.2935 24.4478 26.804
1 30.5563 14.8859 1.05508
1 22.2541 20.2272 30.8178
1 34.8803 24.8803 40.3043
1 -0.0801164 16.2732 36.4271
1 10.8161 10.7068 1.06913
1 22.4077 15.2271 22.9131
1 38.097 41.5852 36.1259
1 15.8013 10.8066 0.224461
1 16.7641 16.1622 0.890843
1 40.1986 22.151 31.4823
1 2.02064 12.0396 31.4194
1 18.3042 18.9701 38.6811
1 29.8677 24.4644 20.469
1 41.9864 36.7677 32.1872
1 39.7948 18.7495 38.9642
1 23.3786 11.5433 10.0687
1 30.3198 12.9196 42.2601
1 8.46271 21.3118 18.3416
1 20.0997 20.7524 15.8069
1 6.42528 29.927 21.131
1 8.37884 23.1659 25.6628
1 5.65572 32.1581 18.1668
1 21.8077 24.8464 20.9849
1 22.1256 5.07404 39.0898
1 33.5932 33.3672 3.7313
1 40.4309 12.096 6.00256
1 20.9894 31.9221 42.5976
1 42.4536 33.7005 17.7729
1 41.9381 39.2063 20.7422
1 18.1562 31.3565 28.7333
1 29.2724 28.3224 12.2385
1 16.0911 9.75409 10.2173
1 24.3321 8.95667 4.03868
1 37.018 34.5347 21.8736
1 4.30582 -0.00936729 26.4249
1 20.01 11.8183 7.31111
1 33.0445 20.1984 41.2958
1 25.8515 34.51 40.2068
1 35.9737 37.7015 37.7231
1 26.8379 7.725 22.7561
1 15.5207 19.234 38.2876
1 2.24773 36.5122 39.9879
1 17.9792 0.344519 32.5757
1 1.91628 14.9023 17.1861
1 21.4534 20.1375 6.21679
1 27.8667 36.8927 12.1468
1 37.0166 9.35273 21.6466
1 20.2849 7.80726 32.5366
1 3.00652 26.4598 13.2615
1 7.52007 32.2096 22.2409
1 28.2662 33.8888 4.2437
1 9.36489 25.0057 42.1283
1 8.17493 25.5864 42.8654
1 19.693 42.37 17.4613
1 23.5063 8.18292 36.429
1 33.5404 7.96779 36.3491
1 9.80635 27.0605 33.2739
1 38.2412 42.0993 39.9223
1 36.4123 40.8892 0.504133
1 16.6299 28.9359 11.2265
1 22.4041 42.7077 27.4859
1 0.884183 14.2317 33.2152
1 19.5207 34.1877 9.09647
1 4.3744 27.7933 29.6209
1 4.67045 6.63723 29.3148
1 3.20854 26.9643 8.67726
1 22.6328 23.1704 35.9659
1 29.4886 2.68454 9.4398
1 36.6262 10.2422 30.042
1 18.1003 16.348 28.032
1 13.6997 41.3125 7.91148
1 10.659 32.1611 24.6171
1 21.3133 13.3709 10.1763
1 22.3598 30.6184 16.3215
1 32.0894 2.9628 2.15612
1 18.0397 33.1046 14.4553
1 41.6778 34.3212 16.8014
1 18.4168 17.5537 9.24168
1 1.94657 31.7777 27.1991
1 20.1383 11.8174 32.0382
1 2.86516 33.5704 32.419
1 25.215 13.7009 12.9028
1 17.9172 9.90905 18.6646
1 16.8641 19.305 9.95746
1 30.8712 39.6978 33.8385
1 15.1564 19.7487 5.12986
1 5.23743 8.48986 34.3572
1 1.32202 28.868 13.9022
1 20.8636 42.7911 25.8818
1 0.494986 26.8125 33.7553
1 41.6592 26.5714 39.655
1 20.6587 2.38951 14.6672
1 20.3232 28.012 40.1959
1 20.433 32.9024 21.3015
1 41.1078 32.0525 11.2889
1 17.1453 5.85389 38.2828
1 23.4302 13.1911 23.6551
1 8.13528 30.5298 34.585
1 21.2428 10.0337 6.11991
1 24.6222 8.84235 17.4858
1 17.5342 3.05005 9.15929
1 26.3042 16.0962 27.6123
1 33.6265 38.9538 36.4422
1 9.63088 24.4489 36.1685
1 26.3988 34.0607 21.9561
1 20.8226 29.3597 2.64904
1 19.4069 3.5515 36.2777
1 24.5719 37.1044 31.6057
1 20.9638 8.5495 33.5447
1 31.2992 6.03782 6.08794
1 28.4675 33.0598 23.0885
1 0.621162 14.258 22.3318
1 40.7566 18.9952 38.0605
1 20.4198 0.382092 33.4579
1 6.19816 19.0456 12.8943
1 41.4324 13.999 1.33244
1 28.1514 13.9214 35.2814
1 26.1654 17.6836 42.568
1 20.9456 22.2184 14.051
1 31.9026 7.55882 24.4468
1 42.4577 36.3497 21.0062
1 5.55537 24.9566 34.2977
1 9.43356 18.3359 6.92675
1 24.1862 35.3733 13.8788
1 39.457 17.608 39.84
1 41.0624 2.43802 21.462
1 22.9395 8.02175 40.8638
1 8.52921 35.282 22.5381
1 25.1775 41.8072 19.2821
1 10.1485 11.9624 3.79022
1 25.2255 20.7465 11.753
1 40.9938 37.3785 3.21182
1 3.02032 24.5471 24.3325
1 42.2549 0.606598 8.81566
1 35.7296 4.24191 0.692223
1 4.49003 9.75047 22.4453
1 21.4906 42.4643 5.19886
1 32.1789 25.2222 26.1166
1 41.9277 42.054 10.7793
1 2.16944 31.2908 24.4564
1 8.81219 24.5541 20.0871
1 33.7713 6.30273 37.9401
1 3.68744 37.6921 20.2322
1 36.1818 12.5072 24.0957
1 21.9511 38.6359 22.9953
1 14.4041 21.3727 19.2871
1 1.54773 30.1521 16.623
1 36.8572 0.428075 38.4376
1 21.2467 4.53862 37.9704
1 38.8481 29.5358 35.0056
1 19.0831 36.6433 14.4569
1 6.41866 38.1588 8.20961
1 35.6274 30.4122 13.3715
1 26.2711 20.2592 27.0887
1 7.68635 35.1987 0.964983
1 24.5291 24.4306 25.3018
1 18.8096 10.0148 14.9566
1 15.4495 13.7576 19.4205
1 29.2264 29.7359 0.975069
1 3.38312 42.071 18.5236
1 42.0126 11.1335 21.4944
1 3.69151 23.6179 40.6967
1 20.2286 16.7618 41.6632
1 9.05298 19.9003 39.2692
1 35.5665 10.1393 6.30181
1 20.8821 21.4962 35.9628
1 28.5407 8.46448 0.972577
1 21.7653 18.4848 40.4287
1 8.5793 9.79097 42.5416
1 18.9383 26.6476 5.25093
1 22.6764 9.82868 34.9437
1 3.72286 42.0655 23.8222
1 26.4225 32.4592 3.30589
1 21.2245 23.138 34.1156
1 39.938 40.0524 26.8524
1 26.321 9.1376 39.0329
1 15.5297 11.5421 1.61668
1 20.229 19.4484 22.888
1 5.8614 5.90094 19.1674
1 39.9098 11.2528 6.90214
1 2.70905 25.6444 41.8447
1 42.325 35.3491 3.56232
1 2.38706 22.277 24.9044
1 37.1792 39.4792 41.4781
1 37.4343 21.6846 21.8946
1 21.5425 3.52838 37.199
1 8.69611 16.0327 16.1403
1 41.7878 13.6049 26.1196
1 31.1437 7.64481 15.4912
1 24.7461 22.9222 11.989
1 22.5021 3.16976 12.9291
1 6.90208 27.8963 7.37841
1 35.7423 34.8636 22.7381
1 40.6907 31.6811 37.1057
1 36.1271 6.76709 17.5478
1 29.6825 41.9665 36.2024
1 26.4642 36.3672 37.5003
1 27.7011 11.8289 6.68698
1 22.9112 26.9667 0.571943
1 22.5841 11.5263 4.64315
1 35.3112 5.2614 1.66101
1 8.24539 42.1373 28.0308
1 36.9225 36.3855 20.4154
1 14.0173 12.3296 3.59586
1 7.31119 41.2872 13.3435
1 2.28738 39.8524 19.4799
1 0.35605 11.4468 9.43408
1 30.9664 26.1283 26.2743
1 28.346 42.2599 34.1624
1 21.4122 16.1204 21.9642
1 8.9744 24.4106 21.5049
1 0.985613 12.8246 33.7529
1 40.9188 20.5263 37.6284
1 12.7123 22.8182 40.581
1 4.22716 7.80456 31.8033
1 15.8288 19.6939 24.1019
1 29.9441 29.5113 24.8754
1 14.6002 19.718 6.44288
1 12.2852 39.2204 27.4747
1 0.736753 33.1998 4.04174
1 36.2945 40.4992 42.0108
1 28.9016 23.7043 20.0165
1 25.8533 8.29814 21.963
1 35.5784 15.9343 42.7802
1 17.4504 30.5884 9.66084
1 21.134 22.1416 4.77036
1 34.9007 12.4101 15.4001
1 41.0744 38.8286 25.1563
1 11.9018 42.2855 11.561
1 35.975 26.1987 24.1562
1 21.1608 24.6615 14.5346
1 6.4306 39.9995 24.5662
1 1.04216 33.9453 6.56957
1 30.1816 13.2123 26.8968
1 37.7488 23.5518 38.2772
1 11.4018 28.8447 25.8991
1 15.0194 25.611 19.0336
1 16.7476 41.915 7.53622
1 7.05952 21.0176 38.0431
1 38.5336 5.61643 25.1673
1 2.48204 16.3169 16.7585
1 30.593 33.0846 3.61238
1 1.56093 32.9461 26.3126
1 23.3056 26.9766 32.8094
1 3.59384 1.37473 19.0723
1 25.03 29.8955 40.7838
1 24.764 17.5685 42.4061
1 5.51765 35.9528 0.622469
1 26.8352 33.4379 4.19493
1 40.1346 39.2003 27.8387
1 18.7529 4.75007 22.403
1 15.0685 15.6274 21.0005
1 36.4559 22.642 24.0975
1 0.589073 12.9346 41.5853
1 4.14555 38.729 20.9707
1 25.9057 0.196384 40.9029
1 40.8884 38.0197 27.2843
1 28.7195 5.19887 40.0965
1 36.5978 25.4341 17.3213
1 3.48495 26.2948 25.5699
1 30.2584 13.1754 35.6076
1 30.2436 16.2344 12.262
1 14.2085 13.5339 10.4188
1 38.1963 33.887 9.49973
1 37.1069 32.9556 22.421
1 6.42638 35.4956 39.4865
1 28.6646 36.4779 28.1696
1 37.8469 13.5743 20.687
1 28.8111 15.5398 12.2725
1 14.6344 21.419 33.5839
1 6.90842 1.48187 28.7059
1 38.4624 41.5243 37.5677
1 9.79056 38.3765 6.28183
1 41.7863 6.29912 17.1264
1 14.3993 42.2733 30.1839
1 37.5192 7.23487 19.5084
1 42.7431 41.5 9.48181
1 16.5286 21.1573 11.6969
1 35.5441 2.35049 35.3006
1 40.1857 8.75334 8.77914
1 23.7236 18.6132 31.7997
1 21.6868 16.8994 41.9683
1 4.51878 40.0225 22.9131
1 9.85926 32.863 37.3818
1 13.4328 28.1008 27.539
1 14.8674 23.1575 31.8006
1 15.4916 17.7258 16.2484
1 4.99585 14.3926 23.0142
1 15.9121 15.4263 23.3665
1 38.7683 31.1628 18.2366
1 27.272 13.6426 0.402723
1 23.1588 18.4792 5.56907
1 10.7639 12.4997 5.75923
1 7.99136 35.1915 40.9812
1 14.5271 21.7928 0.561877
1 22.0374 29.1355 18.3716
1 26.4971 38.2527 40.1887
1 18.3499 8.91164 19.6156
1 19.4672 15.1689 9.85411
1 30.8099 23.1497 26.6906
1 3.3586 19.298 19.6641
1 23.5554 19.4876 4.55751
1 32.449 30.7018 31.0943
1 25.2922 16.6476 11.7567
1 21.0978 41.1661 4.6563
1 33.7391 10.3979 33.4468
1 41.5808 8.20183 10.8124
1 21.677 22.328 12.8264
1 6.24317 20.6769 27.4953
1 17.6971 12.0283 1.52363
1 35.3828 30.5766 34.0508
1 8.92062 24.981 8.5616
1 35.3788 21.0963 32.6624
1 25.9542 8.76975 8.41605
1 10.2717 9.27714 40.7827
1 0.756905 16.6105 33.4071
1 26.574 16.2033 -0.0510894
1 35.6831 33.8807 35.1426
1 38.053 39.7155 9.15335
1 4.66357 1.52864 17.9899
1 23.0758 29.4314 21.9225
1 6.31468 30.2474 33.0681
1 16.8054 15.1255 25.85
1 8.93725 30.6164 23.9634
1 28.5335 5.79867 -0.10127
1 8.76101 25.8672 19.6274
1 39.1745 33.522 10.5972
1 40.8787 37.1707 9.95333
1 8.56117 3.68463 15.8554
1 34.3147 5.64526 40.8229
1 25.7161 2.28972 10.6068
1 7.07614 3.78244 29.4525
1 28.7429 34.5752 12.6493
1 22.2985 8.6508 35.7499
1 3.21363 24.4141 20.5476
1 31.0635 12.0392 2.08486
1 30.7406 36.4835 22.0488
1 19.8048 9.91142 42.2882
1 30.8051 2.79145 43.2537
1 17.0975 11.7681 20.1088
1 1.61896 36.3769 38.8476
1 22.7411 37.453 1.85991
1 25.1624 21.5629 1.3139
1 29.1377 32.9363 3.5807
1 15.1488 26.5968 15.0982
1 43.0859 40.2702 13.7635
1 6.71434 22.0554 2.28035
1 31.7103 4.66943 3.91168
1 34.3301 40.9977 8.03078
1 3.18478 12.1868 5.62918
1 43.367 41.7264 7.17534
1 10.6215 41.9455 11.8325
1 7.10902 5.50081 30.9834
1 20.6215 28.3414 30.4382
1 10.5252 22.6177 30.0394
1 41.9522 30.6482 2.106
1 24.1346 35.0702 29.6315
1 7.78459 6.10759 17.1085
1 33.0237 18.8449 41.6613
1 22.7072 40.8744 25.9679
1 42.79 36.9553 37.3061
1 41.1549 39.7675 39.7303
1 38.5632 7.21498 7.67897
1 25.7112 19.5542 41.2425
1 24.6428 2.31301 4.04709
1 8.57311 23.0045 21.7889
1 17.3576 21.5053 9.5594
1 18.8442 34.7138 12.6207
1 27.1973 13.9812 6.03283
1 17.1939 24.2545 31.6161
1 7.93005 26.7712 5.44066
1 33.4804 34.0513 23.9154
1 19.9165 5.5674 28.3806
1 31.9002 17.303 27.7522
1 8.46178 34.1976 41.8554
1 6.49459 8.41984 35.1722
1 22.9873 12.4065 0.308454
1 7.9513 14.8789 18.3071
1 2.26596 36.9228 17.3004
1 -0.0320557 30.8413 13.3099
1 37.9724 16.4025 19.696
1 26.412 16.041 5.26407
1 42.2998 36.5155 30.713
1 24.5864 36.0451 19.0604
1 11.3197 5.61923 35.3337
1 23.8081 26.1651 23.7933
1 3.28112 20.6602 20.5675
1 4.6315 38.8974 11.5824
1 13.2244 22.1444 39.2224
1 23.7609 29.1414 0.253607
1 24.7665 25.7745 24.8672
1 37.3455 25.9704 19.3784
1 7.76165 21.0207 32.0698
1 2.42889 27.1069 19.6452
1 2.60031 27.9835 37.1214
1 39.8663 24.9341 38.9813
1 23.916 10.1273 21.6958
1 5.98657 25.7545 30.8202
1 37.5839 23.1248 21.5531
1 13.9455 22.6278 41.5628
1 4.10992 13.897 10.0548
1 40.3086 32.5926 10.2318
1 37.5815 4.79233 20.6777
1 32.6268 3.44807 21.775
1 35.946 7.78213 23.0027
1 24.6391 12.4023 8.13302
1 8.60068 -0.103401 14.9603
1 34.1991 27.1649 40.8072
1 3.56414 24.8678 15.8416
1 24.592 33.8172 15.8847
1 5.83891 11.8223 5.00909
1 31.641 42.1007 9.85858
1 33.0615 5.50879 22.7798
1 18.4807 24.7041 32.3954
1 42.4474 25.3018 31.95
1 18.5201 30.8784 6.86374
1 8.05235 28.8249 22.6482
1 39.0453 2.63946 19.0764
1 37.5259 5.40277 27.4264
1 31.8883 42.9356 8.56004
1 38.0289 41.2248 31.7373
1 3.31222 22.217 29.9205
1 25.4444 30.5685 12.6292
1 43.0319 34.5368 18.9182
1 22.5438 14.7542 8.4749
1 34.3257 36.0358 34.3579
1 12.1558 4.94577 34.4075
1 32.1249 18.6613 27.3534
1 36.8389 24.4329 19.5364
1 16.8122 19.4855 3.35943
1 8.95825 17.2055 15.0877
1 31.9671 31.4622 12.3564
1 33.9939 30.2577 13.2393
1 25.0543 39.3985 19.0769
1 41.3042 32.6303 12.6009
1 35.4105 15.1871 32.5531
1 37.8449 35.7762 38.3508
1 20.101 6.10092 31.0602
1 14.9072 31.9983 27.3453
1 12.4001 12.9615 11.3831
1 4.52302 29.9462 3.13555
1 1.53229 16.8422 32.2098
1 13.2085 18.7824 39.15
1 37.1464 8.0966 22.1228
1 34.4098 16.6561 42.4964
1 22.2116 11.7543 21.1797
1 14.5401 28.2163 28.2282
1 22.5699 38.8806 24.1976
1 20.1944 23.2498 27.4952
1 36.5971 17.4208 15.8745
1 28.2304 3.65323 21.6968
1 15.3549 24.4478 21.7958
1 33.0452 37.6756 21.9231
1 28.2187 33.0567 12.3202
1 41.754 7.13322 11.7649
1 24.0757 24.9319 36.6143
1 7.22149 21.1969 24.6057
1 24.1839 37.3886 16.0105
1 6.05589 8.52312 36.6426
1 37.735 39.6786 18.6564
1 28.0145 23.4946 26.4684
1 21.9835 33.8939 28.2165
1 19.1207 5.86965 24.7754
1 0.520358 27.0403 41.5221
1 19.9831 20.7523 37.016
1 37.1686 3.95398 3.78772
1 34.355 35.4011 8.4114
1 7.37004 20.7832 2.48593
1 13.4042 27.6467 36.7061
1 20.487 42.8075 6.17326
1 11.4698 41.1677 40.9207
1 36.1797 11.4577 5.79861
1 15.5423 8.61579 10.5854
1 38.4394 33.4479 8.05756
1 20.1174 18.2305 7.91614
1 36.7899 10.3527 22.4403
1 13.1388 38.268 26.8632
1 5.91824 17.9876 11.4806
1 7.3875 18.3009 20.3009
1 0.320578 24.4723 38.5965
1 30.3813 21.2227 33.4913
1 24.2655 39.4205 12.3825
1 16.4979 27.1364 12.9961
1 9.58355 25.0585 5.60701
1 0.791243 15.2409 23.4428
1 21.1724 23.4075 21.4728
1 41.8843 1.41973 20.8529
1 19.4787 32.7901 5.52879
1 26.2307 38.4977 41.5659
1 5.67534 35.4296 38.3169
1 37.4652 6.85488 6.85159
1 18.7823 21.9192 34.6833
1 21.1015 33.1905 0.113422
1 29.2348 17.0136 0.235313
1 2.83628 22.7142 22.3845
1 24.9174 28.9158 33.5193
1 40.5163 4.27126 8.824
1 18.2286 2.90868 35.4066
1 22.3023 33.8483 0.0171039
1 37.047 16.2577 31.0487
1 12.2899 23.0614 0.410051
1 30.7152 40.7517 20.6717
1 4.6275 40.6449 13.9055
1 0.589006 34.8609 24.5575
1 34.0971 42.5093 7.41584
1 19.3585 12.416 31.005
1 14.1178 6.16338 11.5471
1 13.351 25.9628 28.7842
1 0.864457 12.2507 4.88058
1 25.0104 31.895 3.28726
1 43.0037 39.1448 41.6369
1 40.0351 0.837435 3.01028
1 41.2138 3.08013 8.92997
1 37.4008 19.5258 39.6236
1 39.2884 32.1809 36.9636
1 8.25641 36.5794 23.2077
1 26.3022 14.4331 12.5757
1 40.4048 4.9135 21.7481
1 42.8126 9.53075 15.6432
1 4.8792 25.2165 8.46602
1 40.9719 38.636 30.1452
1 30.1865 27.3528 11.9461
1 20.9741 14.3747 31.8183
1 36.9329 33.1841 35.5866
1 42.0831 35.6536 7.50575
1 16.3461 19.2146 4.62615
1 24.3035 33.8181 4.79644
1 30.5008 35.2603 29.5258
1 23.4951 21.4362 3.26285
1 40.4163 0.491941 24.5737
1 3.54475 37.9592 1.31112
1 8.16761 5.1426 31.8561
1 4.00413 33.4182 34.4762
1 11.5494 20.1356 35.5034
1 3.36593 24.6892 19.215
1 0.943685 38.6973 17.0329
1 2.23253 26.7832 5.5609
1 32.3517 40.874 9.85859
1 14.2297 33.0513 26.5163
1 6.9471 37.1134 4.01115
1 27.5753 35.5284 12.1151
1 41.599 37.7759 36.7934
1 10.5305 23.1106 8.91942
1 31.0195 1.75855 21.2122
1 19.3829 15.4542 2.81705
1 40.9453 38.037 34.2908
1 19.0807 3.72758 23.4203
1 34.7353 10.3224 31.3659
1 0.912851 33.1413 22.4622
1 21.0192 5.77473 33.5604
1 3.12374 22.6034 32.2278
1 21.62 27.555 20.2412
1 26.4534 38.3014 9.88458
1 39.0211 42.3114 25.8478
1 4.33294 23.1609 39.4506
1 39.4447 6.17085 8.16471
1 38.243 28.6298 18.0115
1 27.6175 35.6867 5.90053
1 28.5815 2.1152 21.15
1 10.5649 9.88683 14.8536
1 8.45511 37.8345 6.20894
1 33.9616 35.6041 33.2644
1 10.9821 33.4035 24.6792
1 1.92143 26.8114 42.0283
1 21.2787 25.3929 27.1918
1 5.05652 21.2619 34.4711
1 29.5288 25.2649 26.5495
1 42.2359 36.8849 23.9394
1 19.3331 1.57203 16.5378
1 22.5629 21.1389 11.907
1 29.2268 34.3351 23.1002
1 27.62 41.4113 31.3961
1 25.4047 40.2849 37.0801
1 26.8063 24.3461 26.4517
1 6.39152 21.5852 7.21067
1 13.0215 16.9704 2.10052
1 3.33763 34.1194 14.0869
1 39.8613 5.40272 23.1261
1 11.8515 12.4415 12.4692
1 40.3403 1.70502 15.6788
1 25.8039 34.3979 5.09883
1 36.6265 26.4663 18.1345
1 22.0016 34.02 5.47154
1 6.48718 7.23261 32.7655
1 22.3785 25.9475 21.7026
1 29.1396 9.97056 25.485
1 35.8972 39.4309 20.2161
1 15.1281 29.4995 28.0588
1 38.2261 12.5681 4.91523
1 40.5356 2.85672 6.73098
1 22.3019 15.8701 14.7392
1 4.96769 24.7689 30.1672
1 43.0974 35.4398 22.1211
1 35.3153 22.5613 39.4537
1 4.33093 17.9455 13.874
1 29.2774 6.92648 7.35748
1 9.3649 27.9614 24.3017
1 35.1759 40.7131 19.7745
1 33.8722 20.5753 26.5588
1 33.4771 24.4572 40.601
1 24.2543 27.6441 33.8844
1 0.799744 34.0644 26.7086
1 6.98549 25.7069 37.6763
1 2.20954 26.4174 4.14908
1 22.6203 29.5219 15.3224
1 33.0411 15.0743 27.1776
1 26.4829 0.884354 0.498386
1 20.1159 10.4521 32.1427
1 2.85339 33.1591 11.7814
1 13.1785 24.5496 37.8772
1 35.3345 35.2759 35.2187
1 38.7147 40.2483 3.54926
1 29.9646 17.742 34.3736
1 21.4597 18.4163 14.5205
1 17.4521 29.5794 8.57007
1 42.596 12.4368 21.3243
1 38.7824 40.8083 34.0609
1 40.4486 3.74554 20.7795
1 20.3201 17.8062 19.6443
1 3.21483 14.5362 12.0031
1 35.1225 24.1642 33.1663
1 5.04655 24.7249 9.9248
1 2.60044 11.7788 42.4778
1 38.7994 22.2777 32.1372
1 25.693 36.4151 33.7183
1 6.12261 38.5287 9.69851
1 14.7739 21.7309 39.5423
1 11.8176 19.1677 39.2281
1 3.8784 32.3136 12.1002
1 26.6971 12.8531 6.5796
1 20.7594 25.7411 17.1629
1 24.773 30.9123 32.0571
1 36.638 39.9654 9.30404
1 7.86013 9.34066 40.2853
1 33.9804 14.6253 13.5488
1 30.587 20.6894 42.0658
1 16.95 16.5798 25.9711
1 29.3451 0.349908 37.9659
1 32.4519 2.58363 7.02024
1 20.0451 1.44068 34.329
1 18.2079 14.9274 6.16032
1 8.08311 25.9726 18.3302
1 18.0556 11.9801 14.1784
1 17.0165 28.7575 29.3365
1 22.6508 27.7395 31.8762
1 32.337 9.91137 25.5059
1 5.69692 11.9247 6.54702
1 41.6449 14.2559 40.6822
1 19.5797 42.751 22.3004
1 11.7571 15.8517 5.39082
1 38.0195 41.4022 5.63973
1 35.2601 7.33666 6.24248
1 23.3967 22.319 30.2747
1 0.0677114 34.4175 4.3883
1 25.9534 7.04335 17.9798
1 18.927 0.607153 21.3373
1 32.4359 3.92048 6.37614
1 38.7057 42.1481 28.1308
1 26.2717 35.075 12.5979
1 22.2578 25.1375 28.1393
1 29.8092 19.0689 27.7681
1 20.6053 27.1478 3.52545
1 23.5924 33.1011 42.6824
1 26.2599 32.1299 37.7624
1 37.5277 33.77 7.13458
1 26.2003 10.4427 14.3996
1 25.9885 14.2653 0.838779
1 41.157 31.2837 4.92924
1 -0.18186 27.7726 34.4902
1 32.4592 25.8404 32.4097
1 26.1269 20.9449 41.3057
1 31.0496 19.6835 27.2869
1 22.2219 28.9322 26.2086
1 10.2774 17.5154 4.43959
1 16.5065 13.7923 15.6088
1 42.1422 8.39776 18.2467
1 10.9948 39.6582 27.0377
1 37.4811 15.1685 23.6949
1 30.4821 4.33117 22.3995
1 5.87601 23.5867 10.3959
1 22.6308 17.9291 41.4602
1 15.8628 37.3738 4.09477
1 18.9733 5.77605 17.5604
1 7.03327 27.9777 19.0994
1 21.2463 4.01665 31.8033
1 17.588 31.2801 12.1895
1 32.6561 7.54443 5.88975
1 4.46792 19.9244 29.0973
1 0.181034 35.2562 28.7617
1 30.3724 12.3946 13.5506
1 8.35181 10.0746 0.940935
1 35.2034 5.71932 17.0511
1 35.8904 2.16913 36.8388
1 20.3813 30.5621 29.1537
1 22.6226 13.9734 22.7708
1 0.809534 32.4702 42.9747
1 0.035104 39.9177 17.3344
1 38.7593 29.5388 20.0916
1 35.7595 8.11163 17.4027
1 19.5489 3.69729 26.8901
1 15.0452 9.22196 41.8362
1 36.1656 16.2124 25.3998
1 25.8625 6.19262 20.0453
1 16.2323 20.4074 1.0199
1 16.5141 23.5199 38.915
1 8.91644 22.1545 19.2761
1 36.4273 7.20675 29.5073
1 41.8159 37.5081 35.2813
1 42.27 30.6729 9.43148
1 26.6308 25.2054 30.2843
1 24.5157 19.3108 11.8428
1 32.3691 42.9182 20.4199
1 31.5841 37.7637 22.1656
1 14.1585 22.2917 18.1251
1 23.4397 7.89499 11.9462
1 3.72694 37.3533 -0.160986
1 39.1195 41.1637 27.0871
1 16.0277 7.47567 10.0205
1 18.0902 29.943 41.0249
1 17.446 11.7238 16.5439
1 22.8233 19.3965 25.7445
1 38.7152 23.4563 8.67766
1 10.0848 1.48895 30.7141
1 36.3242 14.7614 24.7675
1 23.9227 15.3116 7.74175
1 20.1104 25.2795 40.3526
1 18.7207 7.14466 17.8643
1 23.5059 1.0692 29.9607
1 12.5277 41.3043 8.87503
1 3.61045 38.4438 9.16118
1 16.013 17.5025 6.39067
1 9.96848 9.43713 42.1032
1 25.6085 42.8809 11.3501
1 19.4159 42.6052 33.215
1 35.2602 34.8135 7.47609
1 28.1025 6.26617 40.4874
1 42.1832 16.6302 37.801
1 7.77582 11.3718 3.38495
1 25.3761 22.4825 26.192
1 20.988 34.4881 6.62785
1 32.1753 25.2091 12.5017
1 30.1697 4.33998 1.84857
1 36.8695 14.5865 16.4014
1 35.347 3.54698 40.083
1 29.4134 5.62707 8.0663
1 31.6927 39.7139 20.8956
1 14.5423 11.2464 11.0773
1 14.6806 20.7232 2.98292
1 17.8874 29.7835 7.29029
1 18.0817 10.5977 8.62095
1 18.5268 41.1941 5.46646
1 25.5462 17.0155 32.9212
1 20.5416 6.2371 14.3348
1 38.8655 32.598 17.6508
1 29.1977 0.503905 10.5383
1 25.8038 24.0854 30.0841
1 22.1629 40.5557 3.61456
1 10.7324 41.4402 28.8963
1 41.5662 36.2212 5.47167
1 25.2233 29.3526 0.73634
1 38.6019 43.1638 16.6876
1 29.7955 1.30631 20.5775
1 8.90261 25.6148 3.42034
1 32.1554 28.4478 31.6059
1 12.108 33.6987 25.3162
1 29.8527 1.28466 9.56139
1 18.1604 11.3111 0.573034
1 35.2293 15.9747 26.5497
1 27.2738 19.3173 27.4533
1 18.916 33.8959 10.3568
1 23.288 17.5068 13.1046
1 25.0394 10.3343 15.2745
1 2.58554 21.0689 24.2721
1 25.6198 29.4835 38.2483
1 17.507 15.206 7.17435
1 2.28685 40.3599 13.7956
1 30.4658 3.27741 8.46745
1 0.348689 13.0877 2.30827
1 3.47526 9.3555 25.0425
1 30.8062 29.9366 29.9349
1 18.133 20.8693 35.3964
1 14.5978 23.6672 18.1214
1 7.12858 25.5535 36.1818
1 20.7362 38.6196 3.63275
1 15.2855 16.1683 14.6781
1 2.84031 23.0959 20.9466
1 26.0341 33.4865 37.6424
1 11.4548 11.9006 3.28794
1 34.9228 16.9081 14.0365
1 26.4341 5.67913 3.22702
1 20.4567 35.0999 19.5175
1 5.31681 34.1649 36.1692
1 22.621 33.1822 29.238
1 15.0075 19.5996 17.734
1 11.9924 22.7934 30.6113
1 25.8299 7.10849 37.7209
1 2.49937 27.6015 20.9515
1 6.15093 41.3674 26.8112
1 36.9615 33.4485 5.83795
1 20.5954 18.247 15.7169
1 19.9549 32.6681 28.3613
1 34.545 21.8908 14.0118
1 6.44017 29.3172 9.46153
1 30.4617 4.64904 7.90573
1 24.3098 30.4458 13.6206
1 41.8767 41.4703 2.37832
1 30.6472 16.442 0.650182
1 25.8328 28.2209 0.251305
1 4.46894 15.4724 25.2272
1 19.3806 36.7105 2.84973
1 39.9262 39.7442 37.1503
1 4.6392 38.5742 3.43764
1 1.7204 17.4622 23.9942
1 3.08545 20.3758 21.9309
1 37.6745 9.68973 20.2576
1 26.8549 42.2594 32.204
1 33.4789 26.7416 32.7172
1 3.76078 32.9437 33.2081
1 13.5444 16.1187 9.80427
1 3.61967 31.3721 9.81906
1 28.2663 25.6506 11.4226
1 22.3095 11.1724 10.9128
1 23.9257 32.9147 3.67302
1 25.3754 36.9276 26.4062
1 21.8292 42.8725 33.638
1 19.9933 20.8773 28.8649
1 2.95772 9.82576 31.7363
1 0.368001 10.0062 16.816
1 22.6503 24.061 23.468
1 31.9295 30.5252 0.911974
1 3.14078 25.2062 21.8761
1 16.7834 13.1857 24.196
1 36.2007 16.2351 32.039
1 6.48438 22.6506 8.14812
1 9.67217 12.1753 5.24388
1 10.918 35.7856 24.4529
1 41.2674 24.4159 31.9369
1 31.4054 32.6634 2.33528
1 42.4016 39.9597 15.8901
1 19.7992 40.6027 4.84069
1 15.1394 25.9803 17.501
1 10.773 29.925 25.5888
1 22.6199 19.527 39.7971
1 13.2532 31.5615 39.8134
1 18.6851 3.45073 18.2678
1 10.6639 2.33558 31.7595
1 38.3186 14.5323 21.4659
1 4.29845 36.4283 20.0655
1 25.4392 30.0873 39.4763
1 21.8475 16.0065 0.158181
1 5.90009 13.3281 21.0326
1 27.3645 18.5034 32.7765
1 41.3011 25.2774 39.0521
1 37.8032 11.2701 19.8852
1 5.99944 4.8368 18.2481
1 35.3283 25.8097 14.8715
1 8.1528 12.0727 5.84142
1 17.9022 14.994 27.9804
1 2.94779 26.1106 18.7713
1 27.7527 7.41608 1.49529
1 38.9222 23.6912 32.8838
1 1.66038 13.2889 15.5452
1 23.617 37.0814 0.817541
1 40.8643 30.7826 35.9819
1 30.9044 10.0053 40.2517
1 39.8461 39.7627 32.0677
1 6.56479 36.4509 2.78599
1 32.9054 32.7045 2.6826
1 19.3013 6.30844 26.232
1 31.7485 14.4716 13.0308
1 27.0589 5.68208 20.8875
1 6.79845 42.3718 27.7043
1 37.378 33.9119 36.8077
1 7.67754 17.3223 18.1664
1 39.7349 39.9231 35.7084
1 17.7718 32.5759 17.0729
1 4.59352 24.6837 12.1204
1 11.5982 18.2927 0.719452
1 29.4552 23.8525 26.5874
1 17.9403 28.7371 40.1833
1 27.903 12.3006 0.731733
1 25.1815 25.9033 42.027
1 24.6127 9.03847 37.0903
1 20.8991 37.4424 20.5782
1 22.5212 17.5786 31.7446
1 39.8471 2.7554 23.6578
1 30.6578 8.66822 6.28358
1 29.2178 13.0866 5.37202
1 13.0304 40.1039 28.5453
1 2.35891 26.4462 35.1737
1 8.34108 20.5706 3.44516
1 42.3371 35.8323 19.4391
1 16.0364 27.9369 17.2004
1 2.02028 29.1257 37.6159
1 15.4246 17.5681 22.7027
1 41.9708 5.32837 15.8658
1 35.1953 13.3464 2.78439
1 24.2826 17.3387 26.4214
1 36.5491 28.9194 23.5714
1 27.0811 42.8637 11.2505
1 29.4265 15.0766 3.22072
1 24.9845 30.8606 27.09
1 21.9951 10.6579 42.2012
1 16.0593 21.1834 24.0167
1 30.3483 21.6727 26.6261
1 22.7167 29.9376 0.806798
1 22.2255 13.5952 9.13131
1 41.0987 31.7509 38.6962
1 2.67043 32.2279 7.05153
1 10.1673 13.5811 7.74812
1 1.77202 32.1144 2.14066
1 0.836023 25.3249 39.496
1 4.33109 21.3888 16.5127
1 31.4556 10.3478 14.5189
1 25.6881 15.3896 0.209528
1 39.3383 42.5362 42.5904
1 26.5835 28.8423 28.0222
1 31.2379 33.739 12.2091
1 18.6033 32.691 28.2025
1 15.4395 14.844 22.1685
1 24.4538 4.00475 36.0603
1 19.0131 26.584 30.5588
1 23.1247 30.8386 1.8011
1 11.8881 8.3946 39.2485
1 1.815 38.9521 43.2272
1 10.6015 7.48893 14.9822
1 7.42542 26.8861 8.09447
1 39.4691 36.7086 42.7505
1 29.1418 2.09404 39.6347
1 8.99181 19.5544 41.782
1 5.13064 11.0329 20.5668
1 26.7012 3.58044 1.26137
1 33.819 33.4017 31.8437
1 26.5282 4.21042 37.4533
1 1.89048 11.9572 39.9769
1 36.1141 10.1081 23.679
1 1.9654 13.9986 14.1706
1 36.6402 36.5574 13.3192
1 1.26381 40.8261 17.3056
1 1.40561 28.3316 12.5643
1 2.56717 39.2845 5.19496
1 21.4711 2.18535 5.96339
1 23.548 31.6133 15.8675
1 41.9367 41.6729 20.4012
1 5.49335 23.5312 6.08221
1 34.4081 5.86623 35.7501
1 29.0129 6.67202 16.3746
1 2.77303 29.9564 38.6908
1 18.488 6.18683 22.6723
1 6.2002 6.68331 31.3844
1 42.4168 15.4063 38.5989
1 37.8775 31.856 21.6712
1 26.4402 1.95537 42.5517
1 19.257 18.4848 28.7978
1 35.057 33.7839 23.683
1 2.31667 26.898 0.688876
1 21.5804 28.935 24.9728
1 26.4598 24.5192 11.9041
1 17.223 22.8258 9.96843
1 40.9569 31.4733 6.23675
1 7.57887 38.2174 7.49614
1 27.1062 22.1804 11.1673
1 24.6901 8.36889 19.7877
1 26.9299 32.7709 22.3161
1 29.362 39.0175 21.4789
1 17.1427 27.8784 21.3043
1 34.334 37.6356 36.0218
1 6.1397 15.7778 21.3277
1 42.8651 10.4071 19.1786
1 40.963 36.778 7.56958
1 27.4831 35.8578 27.6192
1 36.3326 23.8622 23.6757
1 22.0862 28.2213 15.9254
1 34.3923 35.3203 13.1193
1 39.1987 13.6248 29.3913
1 18.754 2.81412 20.7369
1 15.728 32.4662 42.3943
1 42.4396 32.2092 13.4938
1 42.2148 26.2735 32.9731
1 38.26 1.01879 17.7043
1 1.9293 31.662 20.6473
1 28.2248 14.6479 27.5119
1 42.1438 40.2037 18.5385
1 41.9913 10.1711 20.3583
1 20.5956 8.6727 13.6998
1 16.7538 21.948 25.1375
1 25.0556 13.1909 1.2031
1 2.86224 24.1959 22.8735
1 5.19273 40.2326 24.2099
1 12.6225 0.394781 12.2886
1 21.5584 15.5875 8.13694
1 3.56908 15.0755 27.8291
1 23.3612 6.59257 5.87727
1 19.727 6.93797 28.7696
1 6.97849 25.811 40.7138
1 32.4043 1.33985 21.0264
1 13.01 1.20881 31.2205
1 13.843 18.6462 40.36
1 25.511 12.0306 2.19055
1 19.7331 26.3012 4.08028
1 38.3815 4.28166 5.98519
1 42.3557 17.3329 27.3569
1 23.3783 32.873 25.7488
1 6.93884 19.4846 9.63458
1 24.0076 29.8404 27.2219
1 24.7385 7.95573 18.4654
1 20.2566 19.5465 29.3134
1 16.6708 27.4184 29.5539
1 35.7449 30.4969 -0.403549
1 34.3663 17.0098 26.8494
1 18.8461 34.6988 17.6998
1 17.898 11.0616 25.0542
1 9.47623 7.52495 15.7491
1 41.3422 31.0846 8.45514
1 23.0761 6.76711 40.4225
1 35.5087 10.9107 17.2507
1 1.09432 35.8258 13.7337
1 15.2304 26.9976 16.6323
1 36.214 31.5097 13.7049
1 19.7502 41.3968 32.4564
1 26.7893 1.19467 35.3806
1 26.8977 40.4552 11.4893
1 27.6982 16.3691 11.7055
1 10.9288 6.2309 14.6331
1 40.5457 38.9917 8.41227
1 1.37619 27.8168 6.18768
1 38.0187 14.0728 2.93224
1 19.4815 39.777 30.7484
1 5.59219 36.6805 1.91281
1 25.3079 31.6522 39.1156
1 19.5362 27.8263 29.8546
1 7.8046 26.2461 4.09364
1 36.6787 27.8381 15.8788
1 18.6115 11.7019 30.0282
1 30.6281 11.6259 38.222
1 3.43522 39.5715 11.9808
1 9.61107 22.9842 12.7299
1 26.2844 42.2166 41.7492
1 23.037 36.1643 29.6408
1 14.963 20.4849 16.6877
1 41.5987 36.3529 4.09953
1 19.287 16.4085 30.2459
1 20.6277 28.6177 3.82916
1 18.6383 2.43765 19.3536
1 18.5466 31.1088 21.2077
1 20.2598 36.6576 19.3887
1 0.787213 11.3564 16.7676
1 26.9049 18.6775 3.7869
1 25.1012 18.1653 32.2648
1 28.7877 19.6699 11.0251
1 10.4179 34.55 24.0648
1 40.0026 38.2462 3.85022
1 24.0848 17.7141 41.2887
1 40.3432 35.7465 42.1768
1 24.8395 31.3273 41.4821
1 18.652 20.3336 36.6077
1 24.4594 11.4919 15.9246
1 17.6388 30.8116 13.6265
1 31.7705 19.2202 34.0715
1 15.4955 21.3269 21.5769
1 24.5393 16.0422 25.9135
1 34.9945 0.588515 3.22757
1 19.4278 1.84783 7.45711
1 4.96055 17.0122 11.7624
1 1.13425 39.4398 11.6444
1 28.471 29.3913 24.7021
1 22.3878 1.46489 29.2953
1 5.81207 19.8954 26.233
1 43.158 40.5742 1.91438
1 34.1042 20.7175 40.5432
1 22.9439 15.877 24.0991
1 39.4545 28.5673 34.3449
1 25.3522 42.4213 29.9379
1 18.8076 4.13941 21.0578
1 2.93602 31.724 2.88149
1 6.76844 12.3695 19.0716
1 10.0028 38.7984 7.6435
1 35.9405 32.6637 23.2338
1 20.6698 24.3262 17.3432
1 0.681612 30.076 37.353
1 33.9816 34.1893 12.3718
1 9.46047 14.9368 15.6169
1 18.8422 22.1455 7.99386
1 20.1953 21.8465 16.727
1 24.7249 37.962 25.8585
1 19.4244 16.3298 42.9435
1 10.9223 13.2801 13.3718
1 39.6483 1.71574 24.7823
1 13.886 2.8311 33.1505
1 27.8385 37.6753 7.63439
1 6.26628 0.639339 27.9314
1 9.12635 11.2155 3.08769
1 41.1112 39.7537 15.1107
1 23.6546 29.3727 14.1787
1 11.3748 23.2589 6.02845
1 20.0407 20.0914 20.0024
1 20.9611 22.9585 28.8272
1 15.0168 17.4718 43.0235
1 1.0921 33.5562 24.0459
1 3.98788 13.8178 27.2128
1 28.8245 10.5985 14.271
1 24.0049 21.8961 25.9854
1 8.13464 21.8357 28.5427
1 12.9466 23.8237 30.3409
1 34.3403 7.80196 2.32562
1 37.8002 32.7295 4.864
1 33.5999 0.794495 0.983317
1 36.3053 1.20797 39.5987
1 25.8206 1.20632 1.63688
1 22.1417 19.9861 24.6864
1 30.2426 31.8442 24.4419
1 24.3437 41.0611 27.8107
1 42.2435 30.2368 4.42369
1 30.7283 16.7084 27.8751
1 2.12401 29.7279 19.0716
1 20.8461 1.80629 35.4871
1 3.53808 19.5641 30.225
1 3.80763 8.97008 26.6014
1 16.1248 35.838 27.6982
1 2.21699 12.2824 0.583148
1 9.85152 24.7053 26.5132
1 8.77097 6.89453 35.6901
1 3.78572 12.5303 27.6795
1 26.1463 35.3686 5.83974
1 19.5953 15.3656 4.3496
1 33.9035 26.9645 25.4995
1 8.0093 22.653 23.1732
1 31.5913 5.48298 15.7389
1 40.2413 31.9444 8.96958
1 27.9407 28.32 28.416
1 29.4971 4.77499 42.4312
1 36.3785 34.0772 13.6976
1 38.8025 19.4056 22.6412
1 14.4198 26.7312 37.523
1 26.1074 37.3704 42.7124
1 8.11664 11.005 17.4435
1 19.7443 9.74915 30.9061
1 26.1443 11.7385 13.7562
1 18.8198 8.21472 24.5037
1 19.6626 17.8655 41.033
1 33.8082 18.9202 12.6302
1 2.83678 34.8074 15.1886
1 39.8754 9.28674 24.1241
1 35.2412 3.97498 33.7363
1 3.3964 25.5644 4.01333
1 31.8339 11.064 26.1578
1 5.18459 24.4075 5.06608
1 11.6458 3.64041 13.4014
1 35.7238 4.53126 42.3223
1 40.6865 26.9496 33.0357
1 27.3418 4.27092 20.7334
1 33.1967 7.13981 39.0326
1 34.3511 7.49116 34.197
1 17.5558 16.4695 9.87157
1 0.740896 12.1071 10.5812
1 7.86057 35.635 2.33423
1 41.4812 13.0388 3.61816
1 25.3205 29.7074 23.4771
1 24.7183 38.3295 18.4275
1 23.4167 12.0506 34.7484
1 3.39065 2.30455 25.9911
1 36.7328 9.05404 18.1747
1 37.2002 31.7751 35.4794
1 31.4673 18.4002 12.1079
1 12.1556 23.4807 4.69489
1 26.0223 40.7876 39.8673
1 25.6997 11.8693 24.9777
1 29.2249 36.6018 22.1893
1 13.5882 29.6467 37.9771
1 18.1388 19.2209 2.92019
1 34.4704 14.5815 26.5151
1 29.0882 37.4531 11.3703
1 3.62359 23.6924 16.7719
1 17.7543 26.1391 7.79619
1 28.2746 6.04463 1.37018
1 18.3188 42.9033 7.14105
1 23.1235 14.3132 33.4482
1 3.39145 23.6275 18.0736
1 17.7344 22.9634 41.2438
1 6.31618 27.6242 1.00515
1 3.7526 16.2814 27.4162
1 20.8364 30.3575 24.4742
1 19.8848 39.6315 16.6052
1 38.8528 34.9967 18.4622
1 35.8575 1.41835 34.2933
1 39.9416 15.1173 42.327
1 3.91969 22.5538 15.8647
1 26.2879 9.25111 2.27376
1 38.1239 38.124 10.8396
1 6.74186 10.0891 19.0513
1 1.6841 12.5513 7.46178
1 20.9414 24.1499 3.49357
1 11.3015 33.1541 39.5162
1 21.7073 18.7338 6.01417
1 20.4193 42.1049 24.5984
1 20.7219 22.3996 20.4515
1 28.1784 8.32496 41.9499
1 6.2368 22.0989 -0.015659
1 2.77728 37.6184 7.1282
1 6.1571 31.3295 17.124
1 29.5275 20.8944 11.2159
1 20.8552 31.9161 28.8913
1 4.90335 4.78098 27.7449
1 38.598 41.6462 17.0563
1 3.16154 17.3119 29.6756
1 2.51759 1.24128 23.4514
1 28.885 37.7497 28.8052
1 17.0465 12.2573 17.7862
1 0.47766 28.2827 5.13218
1 37.7821 22.2534 38.9047
1 37.8586 41.1023 18.1817
1 7.01374 28.2511 10.1393
1 37.866 1.22427 0.0102601
1 26.3924 3.31225 18.497
1 26.4946 33.9835 36.4286
1 9.89326 28.9297 34.6377
1 18.6667 6.6231 20.297
1 4.14925 35.6702 38.694
1 29.9414 29.6033 11.9341
1 36.9855 24.4706 38.806
1 27.8408 25.0102 30.8184
1 40.0212 36.9283 11.1003
1 42.8084 35.526 23.5356
1 23.9918 10.5369 9.53336
1 34.9645 14.9664 0.762944
1 0.611178 33.7808 20.1024
1 20.4192 1.32575 6.3328
1 40.4721 41.2173 24.5215
1 13.7016 20.8727 34.6693
1 39.8448 13.7106 28.1168
1 7.08132 26.6278 1.95362
1 17.1691 19.2678 26.1165
1 6.64619 18.1867 10.166
1 11.6021 21.9533 7.22265
1 13.3223 14.6629 10.2192
1 17.0882 23.3664 25.3043
1 21.7443 28.7402 1.68353
1 23.5557 23.3468 1.85827
1 0.13196 29.5311 36.1849
1 22.701 31.5644 25.4884
1 21.4308 12.3306 32.9767
1 19.4627 25.9797 25.0412
1 5.3839 16.8221 23.4014
1 22.7459 34.2086 25.1284
1 2.18736 15.5207 20.8024
1 20.2511 40.719 15.5233
1 38.4369 17.1289 21.8171
1 30.7699 31.2577 29.5109
1 8.5661 27.67 23.1501
1 22.3469 25.7942 33.3435
1 15.5682 7.42652 39.6364
1 15.129 6.38962 37.473
1 40.2886 33.6393 13.1078
1 19.5554 19.3644 7.67803
1 21.4706 38.104 30.1934
1 29.1889 23.142 32.1154
1 13.7756 12.3678 10.9959
1 22.417 11.3058 19.7409
1 41.7471 8.86586 20.7079
1 36.1493 39.2828 10.3066
1 41.6177 7.93871 19.6087
1 21.2791 9.65831 12.9916
1 29.4286 31.6947 28.9828
1 26.3543 21.4709 26.5285
1 1.50207 30.493 17.9198
1 7.25891 11.9653 6.90123
1 2.93373 18.9962 22.3586
1 37.591 2.74843 19.3727
1 34.9907 5.86733 6.11968
1 6.81851 21.8185 4.70223
1 24.4954 38.2721 13.4271
1 3.66938 31.1914 6.52214
1 37.7161 15.3084 18.739
1 20.4362 3.1929 29.1747
1 5.74951 25.9315 38.4155
1 38.1488 9.72845 7.36353
1 41.8055 42.2928 3.62312
1 17.0716 29.2382 13.6553
1 41.9819 5.26401 13.1332
1 19.949 7.06855 30.2126
1 32.8889 13.8297 13.5785
1 7.57055 27.1849 9.38109
1 20.3005 21.9798 34.8795
1 23.2575 32.7769 18.0985
1 35.9237 4.68994 4.20145
1 22.5593 0.357517 4.4788
1 34.1761 1.4335 2.21109
1 37.4178 43.1032 36.0774
1 19.479 30.5365 4.83419
1 4.25202 16.6995 13.0855
1 20.321 14.3552 5.06457
1 4.19041 14.6983 11.1117
1 4.17178 42.3141 17.3288
1 39.6898 41.3359 41.7457
1 19.1033 20.6467 27.7903
1 10.0558 15.5578 14.1429
1 15.3777 5.54394 36.2396
1 31.6106 27.3574 12.1533
1 11.9087 19.604 36.8728
1 32.909 12.3462 14.0694
1 23.4767 23.7367 29.7802
1 20.1895 4.58171 29.2914
1 9.58271 19.0395 2.10738
1 5.80703 31.7521 19.3691
1 10.1955 20.7762 33.2617
1 32.9362 8.57826 42.0043
1 6.95171 8.34678 37.8085
1 25.4803 37.3314 7.78572
1 35.623 3.12826 32.6435
1 37.4648 5.38233 6.65191
1 41.8352 33.8663 42.465
1 25.6676 18.3119 4.45666
1 13.9108 35.9528 26.593
1 30.8684 35.7333 6.45574
1 5.12036 30.156 11.2419
1 35.656 5.10622 30.8977
1 37.9595 5.22176 18.3784
1 25.0491 27.2465 37.1834
1 11.8528 11.205 2.00583
1 25.5139 14.9405 26.6842
1 28.8227 33.9013 28.3693
1 24.9 35.6502 26.1805
1 20.5519 6.45907 32.3504
1 16.1838 27.2338 39.3668
1 42.7337 42.5445 6.14765
1 25.7616 29.1213 35.7172
1 33.9446 39.619 37.5868
1 19.4542 8.81999 14.6343
1 30.5297 19.8935 33.8752
1 17.8017 19.8024 37.5594
1 32.9638 29.1558 24.6933
1 42.7748 35.4683 8.80779
1 1.70662 19.2021 32.6618
1 17.0132 25.8515 10.2741
1 41.0587 39.7084 13.7466
1 12.7596 9.27437 41.4477
1 7.18428 20.3978 22.1966
1 26.8506 21.1712 31.9845
1 19.6378 17.9066 18.2971
1 29.4691 6.79647 23.6586
1 15.3861 16.6435 1.06487
1 3.37688 26.3082 9.95791
1 11.4409 35.9324 2.67632
1 9.50433 30.3031 34.6776
1 16.0332 27.1508 20.7848
1 37.3222 16.8548 17.1471
1 18.2094 32.4591 11.8926
1 15.6601 26.1148 21.7699
1 42.8829 21.5536 30.3614
1 10.1552 4.06048 33.3405
1 19.9296 41.3845 21.9533
1 0.113351 17.5658 35.8158
1 18.5028 31.5337 9.3524
1 2.09308 40.9336 18.6096
1 27.5591 8.32523 23.9447
1 -0.404732 41.9297 4.65434
1 15.184 22.0096 40.8569
1 23.8202 35.3391 25.3072
1 25.621 21.7448 40.2181
1 18.4155 1.01276 7.92434
1 24.9526 1.15875 11.3253
1 21.5772 31.4974 24.7351
1 27.5366 33.5769 27.7071
1 12.7646 17.6735 0.895842
1 37.7337 30.4282 22.2618
1 8.30577 25.8843 7.71021
1 17.4498 12.4362 25.2439
1 5.27151 3.3578 28.0694
1 3.58642 25.1915 2.60487
1 42.1399 36.2149 12.7351
1 28.782 8.01946 15.3764
1 9.45573 10.0261 15.9238
1 13.4617 10.2099 0.327726
1 1.95054 10.8402 33.6204
1 7.63959 27.2758 18.0109
1 16.2708 23.1138 32.0168
1 37.5785 10.2694 28.8675
1 23.3705 4.26508 39.2358
1 19.9616 21.7892 7.10251
1 4.03199 25.2636 5.20319
1 35.2738 29.248 33.3052
1 28.3405 19.5977 33.2586
1 21.4189 39.6483 32.107
1 2.70324 29.1839 21.3303
1 21.6866 14.9429 2.61799
1 42.3251 10.2418 9.47233
1 21.2528 32.2775 23.5841
1 39.5777 31.9002 6.61004
1 39.7448 18.667 30.0514
1 10.42 24.2612 6.5336
1 7.86634 20.9004 34.4737
1 25.4185 25.3583 38.8036
1 0.423709 28.0111 3.70367
1 25.1341 3.56971 10.9522
1 11.1845 24.6535 28.6728
1 26.1276 17.5002 27.6914
1 22.527 23.4449 12.5731
1 3.56624 4.65804 21.9088
1 13.3089 10.8642 1.53333
1 12.6412 12.4345 3.95611
1 2.06216 18.1132 31.7937
1 43.1169 9.47912 18.1707
1 42.9204 36.0326 33.0509
1 13.7703 40.3791 6.89469
1 3.76675 4.57893 25.1162
1 28.2218 14.1404 5.09723
1 38.9503 38.9476 10.0707
1 28.6245 20.0733 27.1988
1 18.8621 40.9329 31.4827
1 35.7436 42.7416 5.63986
1 41.9015 3.47383 10.9797
1 7.21152 27.9643 11.4329
1 40.5835 9.5278 22.9569
1 15.4561 18.2637 13.6252
1 5.84042 0.427518 15.9869
1 14.3137 3.5626 34.3767
1 3.18385 25.8152 1.24728
1 15.606 30.3456 40.8316
1 31.2345 13.6965 1.91219
1 24.0769 33.5085 19.0471
1 28.1066 3.073 9.70443
1 7.65527 20.5475 39.2268
1 15.2445 25.248 14.8624
1 2.54644 13.0717 8.30899
1 29.4717 19.1522 33.9121
1 2.00471 38.2189 18.0002
1 29.5767 21.5488 41.8499
1 15.0194 20.1039 19.082
1 28.5909 5.97075 22.8576
1 27.388 13.5387 26.8702
1 38.1796 1.13517 1.29609
1 20.6299 9.04549 6.87122
1 26.8594 37.9329 12.4008
1 0.276277 29.0558 7.94661
1 25.4425 41.8792 2.22724
1 2.54699 30.1897 25.3062
1 16.9557 29.1618 20.5059
1 12.1242 14.3395 10.97
1 16.7832 4.89745 10.512
1 42.9008 36.6691 34.5257
1 6.93194 20.4804 13.1551
1 12.2007 42.2894 40.7562
1 12.1275 35.3801 25.0121
1 21.3459 12.2404 11.3597
1 27.7334 16.2266 33.9427
1 24.1359 6.75826 11.3178
1 35.7287 27.9517 33.8597
1 36.0348 20.9963 15.7967
1 35.5769 25.6039 33.6077
1 29.5185 31.0972 1.81783
1 23.5625 16.6156 6.96571
1 25.8961 26.9138 12.4716
1 18.0031 8.08702 9.29201
1 18.1519 21.1779 8.60917
1 9.1422 22.2884 14.2043
1 23.9363 9.53828 20.3095
1 1.15702 20.4924 28.8985
1 39.9122 36.0978 16.2257
1 19.5233 37.9345 14.7886
1 5.19901 12.1183 21.239
1 38.7276 31.7153 35.4895
1 15.1087 15.6216 2.97492
1 20.1137 20.3774 6.69894
1 31.7462 8.88789 5.80295
1 9.80741 33.8372 41.2848
1 41.8641 12.2227 6.04971
1 11.5916 4.01297 33.6242
1 13.4484 21.2352 4.88249
1 41.5537 4.83449 10.9279
1 15.5162 19.9887 15.3015
1 19.8891 33.8409 0.647868
1 41.5438 30.5294 7.20296
1 33.4238 29.0713 12.7712
1 21.7573 27.4708 1.36044
1 1.16161 40.2545 2.84088
1 14.3741 16.5925 2.11047
1 25.7505 10.9053 41.7565
1 3.15861 39.3284 3.70748
1 2.85309 21.2938 22.8886
1 24.7758 33.4148 26.2287
1 14.4214 30.7143 27.4223
1 17.0547 15.181 1.81626
1 37.0666 5.79486 21.6959
1 29.5356 27.5786 0.111739
1 38.2148 16.8039 23.3906
1 4.24344 5.23607 26.5485
1 37.1451 19.1335 31.2107
1 42.8036 28.5187 2.66788
1 26.5669 41.9843 19.2164
1 2.37871 30.5307 26.8444
1 0.865979 35.2343 11.2779
1 24.5931 25.878 37.6572
1 32.697 16.3719 12.5732
1 2.28799 26.9331 10.7351
1 37.7487 37.7589 39.5136
1 25.0177 36.2654 16.6805
1 24.4229 40.6826 19.0733
1 26.9222 11.6181 25.5522
1 10.659 12.481 7.17503
1 4.38931 20.1938 15.62
1 22.1306 34.5491 22.9072
1 20.4904 4.07791 7.07719
1 16.1218 1.92091 33.3233
1 42.6469 29.6745 6.94613
1 9.28704 25.6218 25.3505
1 5.94627 32.4417 34.5728
1 21.2688 17.786 23.8441
1 9.63315 19.4593 42.9317
1 0.698185 28.7399 10.28
1 11.8643 1.22378 13.4297
1 16.0465 32.198 27.9982
1 16.5669 24.3984 24.0527
1 16.0189 21.526 41.8727
1 25.3527 36.0517 13.1865
1 39.0431 36.0474 14.1744
1 33.419 21.6329 12.8783
1 6.76783 38.7235 23.871
1 42.2289 0.400231 11.3124
1 20.8312 40.2851 14.3476
1 38.3922 34.1204 15.7275
1 37.963 27.0697 20.1437
1 27.6468 1.68826 20.0995
1 24.6829 35.1626 42.8471
1 9.07768 24.228 37.7602
1 31.612 1.23321 40.9873
1 14.6497 38.121 27.2164
1 24.1603 33.022 31.0789
1 33.9076 6.47671 23.6766
1 16.3235 33.55 28.0656
1 4.68068 23.3391 41.6084
1 38.6668 8.93376 27.0706
1 27.4434 37.4261 20.5351
1 18.4276 10.4604 27.3796
1 7.50019 21.2834 23.1826
1 22.2904 5.75242 6.3766
1 11.1148 28.4708 35.1693
1 16.5212 4.50028 36.4598
1 24.1382 8.94036 41.4145
1 7.52373 7.46294 35.1348
1 20.7395 36.2353 28.8754
1 7.45888 9.46545 41.5876
1 41.2285 12.3109 26.4526
1 24.1051 16.3812 12.5533
1 10.0554 15.9119 7.83677
1 32.8374 4.25866 4.89901
1 3.56045 12.0076 4.29009
1 8.82979 38.5505 8.43802
1 33.8517 37.2739 34.8538
1 19.4696 8.04085 28.0658
1 19.5464 30.9013 22.1054
1 35.5015 3.46826 41.4996
1 21.5536 27.0752 31.0197
1 18.5109 2.00807 34.244
1 10.6865 1.19715 14.1057
1 19.9203 37.7467 18.4592
1 23.0712 0.160732 12.3429
1 42.3922 12.4439 4.66321
1 28.3155 14.3991 42.8547
1 23.3059 18.0923 25.3772
1 19.1543 38.016 29.1014
1 19.6146 8.25298 31.2481
1 31.6361 15.5387 12.2712
1 11.0121 19.9848 10.7537
1 39.7393 37.5599 0.773468
1 19.3191 30.1753 41.4763
1 4.81401 41.5966 14.9835
1 37.0124 0.673184 32.2608
1 20.7372 1.4789 27.6183
1 2.47995 29.4214 22.7143
1 5.3866 28.6211 1.29063
1 10.1689 40.4876 9.674
1 25.1332 18.2626 26.9431
1 8.72533 24.7128 14.7015
1 39.1515 40.641 5.03671
1 26.9857 8.87726 41.5486
1 3.22823 22.023 35.9424
1 42.5819 35.9131 11.2356
1 23.8586 14.7137 12.9909
1 18.4437 14.259 29.1929
1 32.7414 36.0058 32.4289
1 3.75574 21.3106 34.5391
1 18.9007 25.9047 40.4433
1 42.2742 0.0755914 21.1163
1 14.815 17.7495 20.3092
1 41.4384 37.736 18.665
1 1.21436 21.4591 34.6447
1 37.8708 19.2695 23.7465
1 30.1395 9.78751 14.4302
1 1.68873 14.8269 18.7477
1 28.5238 22.1036 10.9068
1 4.61165 26.0222 36.2109
1 25.6351 41.8884 38.9525
1 21.0211 9.81538 41.8127
1 31.7395 22.0246 33.351
1 26.1379 26.4107 25.3698
1 18.9582 32.4935 20.7101
1 32.9593 1.41145 6.45102
1 24.6887 38.6541 33.6583
1 28.1733 5.52193 9.0724
1 39.5129 31.6998 2.87078
1 21.9722 41.6 33.4208
1 16.4608 35.5993 2.49988
1 35.3564 41.3431 41.4029
1 38.1454 21.1947 20.5837
1 0.833743 34.6682 8.87816
1 28.2338 8.19203 7.57196
1 18.1492 25.6547 6.51538
1 34.4654 24.4015 25.4878
1 39.1598 16.3233 29.4133
1 33.1845 39.9823 20.8286
1 23.4071 11.4233 21.8848
1 13.5633 33.796 0.442097
1 21.3587 13.5398 19.158
1 32.3256 40.1279 11.2687
1 17.6904 33.7571 28.0659
1 41.5621 23.1214 37.7747
1 20.4596 23.9692 33.2807
1 1.46643 14.3529 31.7383
1 40.6898 38.6715 31.659
1 4.19556 6.92884 24.9277
1 39.4791 27.5203 39.8692
1 38.8365 36.1501 17.5895
1 4.93403 35.4939 20.941
1 3.5885 41.7398 16.0637
1 10.2539 40.665 27.6352
1 41.9022 35.974 9.98685
1 23.6867 6.76658 36.4293
1 24.3043 33.9159 14.4532
1 35.2819 19.9127 40.6569
1 24.8684 2.41444 39.1249
1 32.0085 38.9867 34.5935
1 18.462 19.7838 8.46224
1 42.0067 37.8103 21.4295
1 10.3291 39.0371 25.9494
1 27.7737 10.6299 24.8277
1 42.8237 36.2283 27.7087
1 39.1651 40.3928 29.7553
1 2.9566 18.1083 20.1396
1 20.2075 5.31462 37.5345
1 7.06946 17.4144 19.4432
1 14.7505 22.7815 15.512
1 33.5387 7.53392 41.7829
1 27.0635 38.527 19.9035
1 29.1304 21.7351 32.7456
1 33.7497 36.199 22.6222
1 0.25865 14.083 36.7474
1 41.1501 35.5738 17.085
1 24.3621 21.3183 39.5885
1 37.7835 36.1729 14.0282
1 4.08013 27.9527 39.4484
1 35.0645 38.2082 20.8802
1 25.4394 4.70849 3.83314
1 3.90549 17.3836 28.3751
1 31.357 27.4043 30.8742
1 6.36896 2.70725 16.4372
1 41.7824 1.52584 12.3564
1 9.74036 41.9805 12.921
1 9.03768 37.5572 23.8962
1 32.8331 8.00577 2.12684
1 33.6767 4.28095 22.132
1 18.9771 27.412 40.7197
1 2.0789 13.3518 30.8421
1 31.1467 34.0089 4.51033
1 25.5272 35.995 42.1271
1 19.5057 29.0301 4.76115
1 30.8003 30.5758 25.1516
1 25.4258 31.6156 33.2294
1 3.70079 26.0202 7.78275
1 23.3896 11.7213 3.3674
1 38.4631 28.3149 19.3897
1 28.0043 23.6489 31.3417
1 5.84508 20.3861 29.0124
1 26.1051 37.8231 37.1104
1 20.0364 35.0867 1.46983
1 23.8699 10.7472 35.6152
1 34.1801 8.67567 24.4823
1 34.7185 8.41746 16.5689
1 40.0629 16.0798 28.3875
1 28.01 15.987 -0.0988223
1 43.1827 14.315 38.046
1 34.2441 32.7505 13.0184
1 39.3203 1.97023 17.8352
1 4.55686 34.1143 18.9294
1 14.3668 8.57032 11.4666
1 35.3105 22.2459 25.2963
1 23.4756 19.8683 31.5268
1 18.9526 2.32238 23.1037
1 41.9274 40.9848 11.6977
1 8.32518 18.5347 14.8766
1 37.0552 15.6813 17.5429
1 20.4841 32.5969 4.37573
1 9.01312 23.6563 26.8528
1 23.4263 39.5689 33.3731
1 29.7816 33.028 28.7931
1 7.87013 29.9899 23.2039
1 41.4651 4.05532 16.0479
1 17.3551 20.7772 26.1495
1 20.134 39.1443 13.5652
1 31.6452 9.43993 39.3468
1 2.6151 27.5307 12.0859
1 33.9566 12.9107 33.3666
1 28.8028 38.9287 11.445
1 16.7697 38.854 28.4114
1 32.0525 14.1853 34.5128
1 20.1632 37.0968 12.2929
1 18.1388 15.4264 10.5386
1 27.6555 5.9181 16.3804
1 3.42172 25.02 13.3071
1 4.03572 22.8616 14.1017
1 9.4951 24.1336 10.8942
1 18.4667 17.8535 3.352
1 33.8052 39.17 11.7054
1 35.9362 41.9736 19.5556
1 41.01 17.2843 28.1418
1 27.041 10.1018 1.45711
1 34.9758 39.7985 10.8121
1 40.3886 7.83056 9.81413
1 4.59772 29.1675 0.296714
1 35.7267 24.94 15.9281
1 28.5115 26.1451 26.1524
1 22.554 25.6784 12.7553
1 20.6707 26.1237 31.9332
1 25.2117 41.4693 37.7329
1 36.4699 2.98231 1.18108
1 32.5575 1.40866 0.353657
1 26.0825 4.74554 10.313
1 2.7125 17.0657 19.022
1 8.9226 40.9963 27.3517
1 7.41509 27.2468 14.19
1 31.6275 35.4738 22.9092
1 35.6254 24.7823 24.4911
1 18.6707 1.8093 21.7406
1 17.0877 30.0005 16.7932
1 4.52452 36.3409 41.1248
1 35.8757 32.4715 3.21063
1 12.694 22.2778 3.9215
1 0.368211 34.9819 25.8887
1 35.1045 36.0247 22.2406
1 14.1079 35.6986 2.54502
1 22.4787 28.4919 41.5499
1 33.7405 31.9053 1.61256
1 42.0445 29.6106 3.1319
1 36.9054 4.97383 28.6283
1 43.1138 32.3605 16.0127
1 11.0674 23.7666 2.30493
1 20.0847 15.6729 18.6331
1 24.3466 10.9636 2.72953
1 22.4121 35.1528 0.574171
1 9.21766 8.88149 39.92
1 41.774 40.1789 22.7347
1 8.97547 8.67944 16.2925
1 9.53716 21.609 30.5137
1 10.2112 23.9312 38.5471
1 23.4888 42.0948 28.3169
1 8.05875 39.6343 10.717
1 18.2682 6.44486 39.0916
1 7.89576 8.51119 17.2313
1 41.4993 40.785 0.342592
1 40.9628 6.75167 19.6508
1 40.8587 27.5076 40.3504
1 15.3175 13.3455 9.47648
1 8.44924 19.0672 16.3297
1 29.2348 27.145 25.5401
1 24.9387 40.1939 35.7471
1 18.1899 22.7647 33.8667
1 5.38393 22.4272 12.2327
1 34.6937 0.539323 4.755
1 4.10361 29.2683 29.8525
1 24.1449 30.2166 22.9531
1 17.3823 26.4296 30.2303
1 18.38 38.7445 4.34927
1 39.5135 19.9229 31.0917
1 13.4698 20.6657 6.35188
1 4.91266 33.8383 20.2917
1 10.4878 23.847 40.1512
1 8.09981 17.2492 8.88364
1 37.1946 26.531 23.5332
1 33.4436 10.4625 5.3916
1 17.6129 13.6181 13.7236
1 2.65689 11.9568 3.18768
1 2.69467 2.34138 21.2516
1 36.6151 34.6384 7.72433
1 25.4302 3.26731 3.52238
1 2.51042 24.0967 38.4116
1 35.402 19.7316 33.4264
1 23.3916 10.1686 42.1322
1 19.5679 33.8448 6.52564
1 9.3136 18.4402 4.60314
1 4.59866 41.3042 24.7002
1 38.31 18.6626 20.1274
1 36.9314 19.8893 16.5779
1 9.47067 25.4884 34.9155
1 8.99586 23.3839 24.3773
1 41.4842 41.4616 23.6859
1 37.0212 37.028 38.4414
1 26.9223 34.5861 27.3618
1 17.5955 30.4287 20.3994
1 33.1296 30.9994 0.691879
1 6.34879 13.4324 19.7753
1 42.6274 35.6209 6.277
1 2.13386 20.5903 27.4762
1 18.2399 28.4196 6.72663
1 5.84758 22.5969 41.659
1 7.48538 33.7265 36.9969
1 6.34749 29.3223 15.174
1 16.8355 22.6111 33.4497
1 41.2773 38.7042 12.7699
1 3.67119 25.8897 35.1641
1 2.56303 28.0407 17.5313
1 6.26586 2.75407 28.7291
1 0.0209387 26.3773 40.095
1 32.2331 37.2142 32.8094
1 10.9745 23.9876 3.66471
1 23.2456 2.78263 33.5002
1 23.514 34.5321 5.72411
1 1.25544 33.1272 28.9676
1 -0.156874 19.9888 35.8959
1 24.1122 33.3918 20.7847
1 38.3968 41.6011 29.3588
1 13.1358 6.60535 36.3803
1 42.036 1.15694 10.0859
1 18.1303 8.50022 22.2206
1 8.81488 13.4833 15.997
1 25.5187 7.53078 20.7666
1 28.3495 36.5814 6.80431
1 34.4284 4.60584 39.7785
1 22.5565 21.1784 37.7585
1 31.4171 35.9717 30.3324
1 31.7803 18.4315 42.4396
1 3.11209 9.96451 33.3813
1 32.2388 29.4349 30.732
1 5.77197 31.5203 15.9583
1 0.207345 19.3512 28.7138
1 11.3858 23.8788 42.4305
1 41.0253 3.50913 17.2731
1 24.2677 28.3839 27.4504
1 16.4671 14.2229 13.3349
1 4.70357 34.014 16.4979
1 25.2013 13.8144 35.219
1 36.8927 3.09375 2.63449
1 20.4283 18.0518 39.8224
1 19.1192 10.255 29.7208
1 34.7942 13.9221 14.8549
1 1.81767 12.2661 41.2722
1 18.285 5.24908 8.73945
1 34.3487 29.7341 24.6896
1 41.95 29.8711 35.4261
1 17.3172 14.5921 11.2487
1 16.8712 18.1352 5.2402
1 33.0918 19.837 33.7423
1 10.1175 24.993 4.19129
1 2.66977 18.3942 30.3246
1 2.81401 30.8465 41.6466
1 34.6477 18.4273 26.9256
1 8.69347 24.9893 10.1241
1 24.0483 25.3021 11.7869
1 5.38095 29.5845 5.29822
1 4.36094 10.6976 0.210147
1 3.55551 31.06 5.07329
1 8.3611 19.7848 13.9062
1 25.0161 36.9142 18.1052
1 22.6496 25.0827 34.5547
1 1.82634 19.7135 26.2242
1 35.6939 31.1969 23.2761
1 20.7135 29.6962 40.8728
1 2.49606 11.1898 37.6403
1 24.4474 40.8404 2.73257
1 4.14553 41.5323 22.5783
1 9.52693 10.5226 1.7651
1 39.6813 39.4989 7.41747
1 43.0112 35.2692 30.1053
1 18.8916 6.89766 23.9946
1 25.5423 27.4868 39.7123
1 20.1944 2.78124 27.8379
1 33.0061 20.1736 12.7831
1 4.49982 30.5524 8.75792
1 21.4745 41.3795 13.5
1 27.4715 31.4913 2.60244
1 27.0536 29.2248 11.7977
1 26.218 40.8522 41.3277
1 33.667 3.01626 4.26964
1 38.9195 25.9436 39.4552
1 13.4784 2.38729 12.1444
1 18.966 35.8826 16.9157
1 25.1803 27.7325 35.8475
1 1.38193 34.7215 10.1587
1 23.5039 23.5842 36.9831
1 40.5064 31.2369 1.98474
1 39.3977 35.0052 15.2227
1 37.5016 37.269 19.1705
1 0.513995 15.0931 35.6253
1 5.19223 9.82376 21.2432
1 7.36856 21.5036 27.2747
1 30.7814 32.4413 12.096
1 3.04052 29.8008 29.0439
1 36.8884 35.3812 11.1993
1 33.9497 12.0266 26.3153
1 21.9765 0.639616 13.2175
1 9.20904 7.41323 36.9056
1 31.4333 4.12092 2.6612
1 8.17991 5.47522 33.3607
1 24.7983 1.0708 38.6933
1 3.46286 3.32092 24.7168
1 12.8907 31.031 38.4013
1 37.5039 25.7455 39.4778
1 24.1986 12.357 0.169794
1 1.71263 31.7575 0.72696
1 27.4147 4.58229 16.9412
1 0.805001 36.0268 35.4084
1 28.8177 42.2656 19.6925
1 19.0521 30.2353 28.9791
1 20.2874 16.3737 19.8748
1 3.39304 31.9866 30.5215
1 36.7926 9.36533 6.78807
1 35.5365 19.2792 14.4166
1 40.5153 36.976 1.75074
1 18.4788 27.8478 23.5886
1 27.3034 19.7643 10.9225
1 22.6755 37.364 30.5274
1 39.693 12.5278 4.93793
1 36.2478 10.5085 18.225
1 29.4393 40.1551 20.4201
1 10.9119 37.9347 25.4919
1 33.2839 31.7238 12.8362
1 38.4159 30.0897 17.5613
1 32.1152 10.082 4.91396
1 4.71816 0.423038 17.0087
1 41.4127 11.7775 23.8016
1 19.7552 6.14483 38.8298
1 33.1057 37.9435 10.9735
1 2.24171 13.6343 11.8478
1 22.3858 31.5457 2.69678
1 5.30881 11.2497 2.45758
1 15.3244 18.5314 40.751
1 16.1546 12.1769 9.3805
1 0.857084 30.4431 14.5248
1 31.6477 6.01323 4.35277
1 4.73183 38.5633 10.1621
1 10.1744 17.0884 6.8346
1 3.47134 40.1176 13.3952
1 27.7962 0.559223 36.0443
1 31.7901 2.3658 0.936482
1 22.3808 30.5514 17.993
1 23.3496 2.72672 11.9206
1 0.723756 35.2193 32.2366
1 1.73774 32.8093 6.02562
1 7.57138 19.6801 8.31978
1 22.2325 27.2598 21.4628
1 36.5602 26.7112 40.1022
1 32.9806 16.2754 42.9831
1 30.6358 24.9275 30.7842
1 30.1446 36.2704 11.6711
1 26.5988 37.8183 8.4855
1 11.3715 30.7105 36.3555
1 35.3837 7.22158 31.9154
1 19.3323 5.10902 27.1061
1 19.9037 41.0269 20.5587
1 26.3857 35.5392 36.3993
1 32.2577 35.532 6.78116
1 20.4036 37.4599 29.3277
1 19.919 24.069 41.2408
1 18.0771 32.6132 10.5169
1 2.55844 38.7925 1.33576
1 6.3237 28.2253 31.4099
1 17.1386 28.2876 12.4862
1 2.01744 15.9413 19.4356
1 25.6562 26.7311 28.5851
1 1.89825 32.7673 24.9308
1 31.0167 0.329708 40.0069
1 23.1008 38.5231 2.56282
1 10.0539 20.4601 35.5381
1 26.3281 25.546 41.1161
1 7.5523 9.84831 17.9401
1 37.6413 34.9811 20.6382
1 7.70873 20.7122 20.9647
1 23.4264 13.1793 3.14614
1 10.8083 16.8983 5.48886
1 3.13258 8.86168 29.7251
1 25.0221 9.63645 3.01057
1 4.87123 27.2238 40.3986
1 5.36302 38.1335 7.18354
1 32.4929 12.2319 26.2577
1 14.2119 0.96603 10.4056
1 30.3232 28.8493 0.713632
1 20.452 26.8802 25.4404
1 40.066 12.4962 27.3112
1 5.02707 6.92587 30.7313
1 2.77141 38.6652 18.9505
1 25.4447 13.0893 7.1182
1 29.7625 12.586 36.7621
1 16.8896 36.4428 3.54301
1 5.42596 14.6206 21.7053
1 22.2815 13.1755 16.2574
1 28.676 34.8756 5.15425
1 33.9509 11.7192 4.71318
1 30.1059 42.3657 37.4594
1 12.203 0.511371 30.2483
1 28.7546 30.5764 27.9887
1 16.0633 21.5701 0.296148
1 21.1919 42.8186 13.9997
1 38.4447 29.4283 21.6605
1 8.71764 24.0396 17.611
1 38.3007 12.4326 29.3694
1 9.05397 39.4973 9.64632
1 0.666313 34.1331 28.0614
1 26.6379 26.2971 29.4759
1 20.6077 38.4511 12.2717
1 36.0797 35.7872 36.4395
1 2.51735 13.5586 9.62657
1 21.4549 7.9236 6.83452
1 23.4957 27.7476 42.516
1 12.8228 41.8332 10.1788
1 8.42033 8.26881 37.6177
1 10.3259 5.0477 14.9959
1 22.6271 31.274 20.3244
1 39.3917 39.3848 16.6832
1 40.6929 37.1767 6.24629
1 30.0378 10.9727 6.2183
1 39.3951 41.4846 40.3337
1 12.8849 36.377 25.4346
1 22.9242 14.7409 14.1627
1 26.6112 18.9529 42.1389
1 16.735 17.2099 11.0945
1 27.9758 27.9935 24.6425
1 27.0094 35.639 38.7181
1 18.0356 18.5277 26.8823
1 9.17509 34.3237 23.2597
1 1.36602 28.3668 7.51264
1 12.1233 2.19441 31.8001
1 21.3051 13.3999 4.58325
1 8.21255 25.1677 17.1536
1 4.76167 13.089 23.6222
1 1.74277 13.0208 13.027
1 0.251585 12.0641 8.10581
1 15.0305 18.5951 7.02802
1 27.3207 6.46455 22.0032
1 24.4215 2.35041 34.3788
1 26.3497 30.1943 27.7492
1 31.2996 30.0656 12.1088
1 3.99985 25.2433 33.8354
1 21.2328 26.4703 2.39596
1 14.903 19.2771 20.3634
1 37.117 6.21582 18.4976
1 20.2417 36.1459 11.0295
1 3.93849 22.1172 37.0791
1 17.9769 12.0541 27.7748
1 40.8677 6.36317 21.1854
1 16.315 40.7944 6.67973
1 31.7657 17.1558 43.2427
1 18.1115 9.17171 23.3846
1 26.4216 35.1924 32.9408
1 4.63787 24.3637 2.38344
1 28.4443 17.1169 28.2499
1 25.9723 13.7037 26.3229
1 25.3718 28.0541 38.4132
1 23.7635 15.42 33.2013
1 36.9535 3.58969 28.8413
1 28.2396 38.9605 28.2105
1 33.1253 6.64804 4.64011
1 15.9294 25.0224 38.7294
1 36.2682 31.3999 0.816824
1 14.108 17.8479 8.00062
1 2.89995 3.41152 22.3093
1 37.7008 23.6591 20.0885
1 26.0798 9.993 7.82387
1 40.6772 8.54789 21.772
1 21.3488 35.2667 20.8043
1 22.5913 19.9527 12.8126
1 40.0597 39.3401 29.2082
1 4.15841 3.71575 19.6444
1 26.4002 8.20895 16.0471
1 2.79662 32.5653 9.48318
1 2.97173 24.9321 40.736
1 20.2667 5.63386 7.63666
1 22.21 23.8823 28.8242
1 38.7677 21.2296 38.6677
1 31.3767 4.14651 15.1129
1 34.2076 5.01291 38.5107
1 39.4358 0.465772 1.71797
1 22.3572 17.2133 24.5342
1 34.4564 9.89589 16.6476
1 31.5397 39.903 36.604
1 3.6469 20.5452 31.461
1 5.7239 25.4123 35.7593
1 37.9392 38.766 42.3676
1 17.5635 4.93729 37.307
1 27.5665 0.030242 19.5726
1 30.6058 15.226 27.7683
1 40.1714 40.9029 15.2193
1 28.1642 27.3687 42.6852
1 14.2379 21.6964 1.92863
1 35.6073 3.70605 31.0723
1 22.2758 10.0632 5.15441
1 11.4029 15.2146 12.0554
1 7.17709 11.7517 4.73411
1 16.4075 8.73064 41.5507
1 31.7256 40.571 37.7706
1 15.6582 22.3093 38.7069
1 21.8035 20.5313 38.8559
1 19.3225 7.83622 15.5755
1 37.1568 14.5559 1.73363
1 22.1196 23.8276 35.0296
1 2.89361 10.8432 40.0407
1 12.9801 22.266 2.56953
1 3.73227 26.3085 16.4032
1 28.6188 11.3069 -0.079456
1 31.3042 2.21527 8.0611
1 12.4894 2.90893 32.8872
1 22.2364 31.0515 42.6481
1 24.3217 31.5886 14.4484
1 43.3403 18.4344 27.6317
1 39.3283 14.7113 0.482931
1 25.8552 37.8343 35.7788
1 25.7806 14.9247 34.4576
1 3.4134 22.0876 20.1106
1 36.6519 17.6863 25.1361
1 4.79302 30.9191 7.41049
1 41.9045 0.585459 6.34559
1 34.9197 4.55597 36.1531
1 1.13334 11.9557 17.9905
1 41.7498 42.6178 22.4106
1 32.0716 28.9531 12.2102
1 16.471 17.3692 24.762
1 16.3748 16.5175 7.43647
1 30.3666 24.0071 32.1342
1 28.7562 31.9717 23.9273
1 42.0472 5.99378 14.4229
1 29.4119 35.1783 28.5746
1 36.1637 5.03029 5.62066
1 36.7665 38.868 40.2627
1 18.8675 17.115 28.9843
1 36.8851 2.30501 -0.114674
1 16.0523 38.366 4.96136
1 27.081 38.4885 27.3993
1 22.2071 9.76454 11.7151
1 33.8318 13.2385 2.78158
1 28.3965 23.7585 41.5618
1 20.515 7.71385 40.6384
1 22.9547 10.0503 19.3275
1 42.6287 13.2677 22.3313
1 31.5353 15.497 34.6492
1 8.74908 34.5369 0.138716
1 21.3735 3.66775 6.1892
1 29.8936 9.84352 6.76625
1 25.0532 8.97993 16.1559
1 24.5787 5.09543 4.84808
1 31.8973 14.463 27.5069
1 0.837016 11.932 13.0273
1 1.03251 36.3655 36.7762
1 40.4215 20.9461 30.8276
1 7.76551 34.9794 39.5624
1 24.3286 6.48826 4.66929
1 15.0257 36.7349 27.1525
1 33.8623 41.0694 20.2446
1 38.5672 40.3933 8.06508
1 21.4088 2.45308 30.2484
1 34.5607 31.0875 24.255
1 32.8169 34.1765 31.0367
1 18.9634 10.8759 13.8697
1 3.21024 35.848 17.57
1 1.9056 25.0999 32.8131
1 21.2301 21.7246 29.1069
1 12.8593 10.1354 12.9502
1 38.8385 17.4723 30.052
1 33.5711 5.5403 5.43783
1 24.115 29.6944 32.7112
1 29.1184 16.4392 34.3574
1 29.5395 14.3035 27.3645
1 19.5018 16.995 8.49491
1 33.4519 9.68494 34.71
1 25.0979 19.6358 26.6873
1 20.6341 20.7339 22.4753
1 1.24682 34.8779 12.5979
1 6.86245 27.1189 3.19967
1 40.4776 34.0969 14.511
1 9.91103 3.60557 32.0396
1 25.4609 28.3618 40.7534
1 33.7284 29.0427 42.2188
1 18.2275 21.5044 27.1318
1 11.5494 18.7613 10.7725
1 38.2925 17.6955 19.0495
1 16.3782 0.999657 9.29966
1 34.4319 23.1502 25.9233
1 41.9279 30.7964 11.0448
1 40.8346 18.3418 29.1988
1 31.5766 9.64113 0.872354
1 38.1437 31.85 2.32443
1 23.9782 15.1119 24.9917
1 28.95 40.8292 32.2416
1 34.252 11.1608 25.0827
1 18.0104 16.9076 43.1871
1 8.81532 -0.276371 29.3095
1 37.5382 2.74546 28.0089
1 21.6448 29.0154 19.8043
1 9.22955 35.7463 3.0833
1 39.377 10.218 26.9067
1 23.6848 42.8007 3.90444
1 1.95621 37.5711 41.1004
1 10.3082 35.3002 2.23778
1 4.50008 2.30112 27.2014
1 20.1347 1.15742 15.4859
1 12.8828 42.3878 29.638
1 35.4744 1.22443 19.7917
1 27.9259 24.4282 11.6565
1 37.6055 13.8652 19.1655
1 20.8815 7.37378 13.4683
1 18.6601 3.84609 8.46688
1 33.1616 31.6847 24.972
1 37.8231 33.6121 19.7423
1 40.3286 13.3475 3.99222
1 24.7686 10.5029 36.7035
1 17.1407 31.2999 19.2271
1 24.6424 25.7983 28.6061
1 21.0979 14.4404 18.0757
1 17.2499 39.3004 5.06331
1 24.779 35.8373 30.8678
1 40.2619 6.40069 9.35962
1 19.3133 4.40292 24.6155
1 39.8073 24.0988 9.02752
1 36.1382 2.18505 41.7469
1 10.2672 42.5061 29.6015
1 9.13786 19.1809 5.87431
1 38.4786 26.2542 33.5096
1 6.21127 30.6615 14.8167
1 2.13246 27.7207 8.5577
1 30.9865 6.50745 23.7752
1 7.31388 21.1518 40.527
1 20.5563 34.0514 28.0212
1 12.6107 22.0755 31.9888
1 23.0708 22.7961 3.18712
1 5.85836 23.6347 11.9255
1 33.0843 40.6132 38.172
1 19.089 3.09149 16.9432
1 25.3037 24.0116 39.0787
1 20.4745 15.2042 1.8957
1 38.1936 30.185 42.0569
1 19.149 34.4479 19.0321
1 30.8033 37.2628 30.8516
1 24.336 6.12959 40.7724
1 37.947 41.5316 33.1168
1 30.1303 34.659 5.41199
1 26.1914 6.16937 10.2392
1 38.3669 30.2011 16.162
1 6.24266 22.3321 9.8389
1 8.88362 21.578 17.0191
1 3.83721 9.78125 35.8603
1 12.1265 38.6298 5.74615
1 9.23718 24.7988 24.197
1 26.7358 36.8579 39.8049
1 30.398 19.2267 42.3147
1 41.2435 41.8198 1.22321
1 37.4565 29.5762 34.8156
1 39.4298 11.2366 27.6428
1 33.5654 30.9155 31.8358
1 6.27472 38.0449 22.8278
1 24.0141 21.684 11.4399
1 17.6662 17.2395 26.9794
1 33.2934 28.2447 32.3128
1 3.93401 24.4735 14.5432
1 38.6818 24.5116 9.50067
1 33.1949 16.5321 27.2942
1 9.08899 20.8515 14.7114
1 35.5081 28.2266 13.8759
1 19.3234 41.8748 19.6233
1 25.3036 36.1409 6.80901
1 42.6302 9.36559 12.9828
1 31.99 9.03904 2.27163
1 35.3855 33.6529 5.28474
1 10.6537 14.6372 12.9911
1 20.0151 13.9294 10.4334
1 18.1345 12.7205 29.0574
1 12.65 7.45357 13.0882
1 17.6758 32.387 18.5924
1 1.5462 33.6672 30.3792
1 19.1753 42.4274 6.34781
1 24.6251 31.1576 1.91716
1 17.4466 27.448 7.50521
1 38.7206 7.65969 26.7801
1 20.0292 18.8051 20.6111
1 6.05166 21.1173 14.1019
1 35.3682 2.39432 39.3483
1 3.0983 0.119304 19.4581
1 34.8184 6.25451 34.451
1 42.864 32.6432 40.6072
1 40.4523 29.3329 41.8937
1 32.7385 13.8201 1.72843
1 0.483685 29.1446 0.0976421
1 18.3302 13.8087 12.2284
1 40.6879 28.2473 33.7109
1 36.5843 22.7377 17.8149
1 5.25492 15.6866 10.8706
1 17.5008 9.6768 41.9871
1 17.9397 9.31896 21.0169
1 6.83238 33.184 21.4312
1 27.8482 17.6499 11.0208
1 0.795246 14.1362 19.6829
1 2.36109 30.8711 22.9325
1 27.4599 9.96783 14.5019
1 42.2963 37.1546 14.9874
1 16.7408 14.2017 7.7857
1 30.9944 31.3531 1.47166
1 31.3787 8.74449 25.0928
1 27.9021 28.1725 12.1161
1 8.61232 41.1136 12.887
1 23.1018 37.0198 8.51038
1 10.8004 8.4629 38.222
1 25.3063 13.1784 25.435
1 1.18007 23.9226 37.71
1 20.23 3.81698 14.9354
1 19.6255 41.4308 18.2539
1 32.7005 21.5022 26.6164
1 33.3932 7.55442 16.2488
1 34.8037 20.8127 25.3961
1 4.5669 29.9129 31.089
1 36.1873 18.7566 15.6272
1 1.63652 36.7706 15.9805
1 11.8922 36.9224 3.76397
1 7.96042 26.3724 13.1266
1 10.728 21.9616 8.44278
1 1.95148 12.3308 6.04052
1 31.4495 4.93837 6.92075
1 42.8305 33.7258 1.83198
1 8.91219 25.1819 2.05074
1 23.412 41.3245 3.64125
1 42.9979 39.295 10.7733
1 23.8086 13.7688 1.84981
1 42.1262 13.4409 2.52347
1 31.8668 42.5475 39.3014
1 36.4621 41.5676 7.52472
1 33.8447 23.5788 32.9815
1 8.85582 23.3842 15.1649
1 36.6082 0.974839 37.0512
1 26.8881 21.6291 42.461
1 22.6008 32.6549 3.56597
1 19.5627 39.4427 4.00231
1 7.59489 27.7849 31.8841
1 34.4899 25.5149 13.6368
1 15.7278 20.1286 36.0072
1 19.7932 24.701 4.24804
1 18.0815 10.4073 16.3332
1 20.5397 15.3571 0.257062
1 30.1578 8.38701 14.7302
1 5.82828 32.6361 20.5487
1 38.8964 4.81586 23.8946
1 37.7454 21.6529 18.1895
1 21.2237 30.6998 2.86122
1 38.2015 35.1951 11.8999
1 21.8119 12.3367 18.5709
1 38.6121 15.8395 21.0641
1 17.0722 12.3092 15.2154
1 37.5406 17.9473 17.9492
1 26.0165 39.5634 27.2263
1 14.7938 15.0091 19.6397
1 2.23222 28.9237 16.3205
1 20.3776 31.2976 3.85431
1 16.4602 26.5777 23.0434
1 3.97384 30.988 11.2696
1 2.74181 28.6928 24.9785
1 3.47685 22.6671 27.4809
1 14.0509 19.3202 38.0966
1 14.4553 0.982756 31.4896
1 33.8773 8.16056 6.46594
1 35.7407 14.3783 1.92344
1 2.57675 26.5573 21.9647
1 38.7482 3.49568 23.3633
1 9.42653 20.7887 34.4446
1 39.3417 15.5007 41.2649
1 21.8501 6.21191 40.0519
1 0.704527 28.2388 35.5069
1 10.8868 14.7949 7.58316
1 9.34732 31.8933 24.0372
1 35.1615 38.8662 38.0589
1 29.3407 4.25432 40.9983
1 23.1424 2.14088 32.1631
1 7.81697 12.3436 18.1095
1 34.9615 5.30014 33.4685
1 1.63991 16.3637 23.1631
1 5.42008 18.6798 14.0337
1 38.2547 3.05022 26.6262
1 18.9199 4.79423 18.6229
1 21.9292 20.9795 4.9578
1 17.4091 11.8461 8.80932
1 34.8941 4.14784 37.623
1 22.4098 3.86834 34.1427
1 18.6935 16.0993 5.3653
1 42.2812 36.9513 25.4322
1 3.9859 10.5255 24.597
1 12.4282 34.3565 0.897897
1 9.37546 31.9439 36.5116
1 12.363 20.6862 34.2821
1 22.0955 21.4458 30.2127
1 13.2376 18.7351 8.78272
1 25.382 17.1002 5.17366
1 19.195 12.9674 11.3666
1 18.3606 34.1943 15.2787
1 2.76256 30.7396 43.1999
1 10.2948 24.712 43.0251
1 39.1962 33.7203 38.5952
1 40.9913 37.251 12.663
1 6.42697 30.3163 19.7396
1 4.06002 12.6797 7.85157
1 4.98482 20.0427 14.2991
1 42.8716 36.4187 13.7832
1 20.0219 42.1074 16.1381
1 35.7346 40.6223 8.24831
1 34.0658 6.56602 3.31699
1 21.3116 41.0743 24.027
1 29.369 32.1042 12.11
1 24.4784 11.2277 42.1765
1 38.9111 40.319 31.2239
1 23.277 9.03855 5.16417
1 6.63631 28.8501 16.5065
1 42.3153 9.51421 10.7366
1 22.4658 4.43367 6.0988
1 25.5239 4.08931 40.7296
1 11.8616 14.6703 6.22723
1 40.2569 38.3254 5.375
1 21.4908 27.7904 40.9667
1 10.0895 24.531 1.41785
1 14.4509 25.3489 37.6643
1 18.9178 5.14299 20.0418
1 25.4646 20.1384 3.25012
1 22.6072 16.2666 32.3045
1 4.63403 22.7095 31.8732
1 16.5756 12.1307 2.48922
1 4.12682 10.933 40.6259
1 5.6097 29.9284 12.4754
1 2.74399 15.0065 14.3788
1 5.67846 24.062 7.60067
1 27.5104 12.2628 13.3283
1 15.2179 2.92656 10.4111
1 17.4707 18.8171 39.739
1 19.1961 4.47329 37.1831
1 19.0003 9.43301 28.519
1 13.0001 32.7881 26.0226
1 12.3713 16.9182 3.39851
1 10.1085 40.8092 10.9892
1 20.0208 18.3155 21.9431
1 38.6698 36.8992 11.4091
1 25.6337 29.2023 12.1531
1 7.46045 26.5975 15.5259
1 31.583 11.7422 14.1301
1 32.2563 30.5155 25.2078
1 20.6984 35.2473 8.85373
1 22.1595 35.6448 28.7505
1 -0.0251816 30.3331 11.9188
1 24.2832 12.6902 15.0983
1 26.3973 39.5337 19.3419
1 26.4336 31.9127 35.5216
1 2.32241 10.7553 30.8323
1 8.16345 26.3948 10.3682
1 34.7059 5.21561 3.06631
1 9.15615 22.8303 28.0811
1 15.406 13.4645 16.575
1 26.6415 32.7839 12.1153
1 42.2697 12.859 23.7037
1 30.8621 38.6547 21.4778
1 25.917 36.4672 35.0697
1 37.6358 31.036 1.08173
1 4.61427 37.8116 2.31827
1 2.34338 16.054 29.7196
1 35.3433 5.81836 32.0032
1 5.81617 21.6263 38.1588
1 0.930805 12.6478 0.961095
1 40.1017 36.8356 13.9722
1 10.9078 18.7901 42.8138
1 20.6535 20.7393 14.32
1 40.1969 38.6284 15.8627
1 26.9369 19.7764 2.88235
1 29.5758 5.70856 2.32868
1 18.5661 32.2168 7.91634
1 33.228 14.1438 33.7481
1 28.9891 8.14948 24.1599
1 17.115 23.5423 11.1041
1 21.4227 36.5036 21.3779
1 41.7152 17.9952 37.4303
1 4.86627 11.7456 3.83922
1 6.81677 36.6806 22.9611
1 9.10192 19.3357 3.43693
1 15.4361 39.3019 27.8202
1 5.3243 5.6504 28.824
1 7.54693 12.9326 8.09049
1 0.637864 30.8755 15.8088
1 25.7582 34.7747 31.5093
1 21.3044 17.8725 7.22151
1 17.0074 31.8324 42.1546
1 14.4507 21.9907 16.6921
1 1.11862 40.15 12.8876
1 32.9471 27.8486 25.3366
1 23.5935 1.19697 11.5001
1 12.9359 16.0587 4.55299
1 9.11587 23.6965 18.9942
1 6.22389 40.3283 13.103
1 24.4311 24.9465 42.7465
1 25.0015 10.9577 8.47331
1 32.9275 35.4166 23.1309
1 39.4969 39.7952 33.4526
1 13.1508 37.1575 4.422
1 35.5588 24.0778 39.4632
1 1.2165 14.212 21.0505
1 1.34443 33.8567 7.9097
1 26.4878 27.6947 24.6628
1 4.39547 6.61743 26.3138
1 30.1771 11.2393 39.7206
1 27.7505 15.7539 28.309
1 4.16327 11.81 6.63343
1 26.1122 18.9783 32.2209
1 40.4033 37.6971 8.69903
1 30.3239 3.95483 0.393231
1 35.8158 19.8784 25.2508
1 26.3374 5.8067 42.0712
1 24.8043 32.7113 13.8054
1 35.9386 37.1023 21.396
1 30.3582 14.0749 3.2207
1 16.9553 43.0959 31.3014
1 5.86374 35.9402 40.5923
1 25.7595 23.7051 25.8904
1 41.1103 10.6702 7.47286
1 32.8112 10.6026 35.7289
1 16.8193 27.684 10.2267
1 11.5396 21.2128 33.0916
1 38.3516 33.7092 18.2825
1 21.8717 12.0716 34.3579
1 34.9467 40.6841 39.8548
1 19.1391 31.4754 5.89176
1 19.8469 29.9982 23.4817
1 28.4115 42.4264 35.5833
1 39.7872 0.248626 15.692
1 41.6677 20.6215 30.061
1 28.7612 32.1557 2.52067
1 26.5119 34.1497 39.0066
1 22.8471 39.3323 32.0589
1 12.6856 35.367 2.02713
1 4.25031 4.77181 20.5393
1 2.18922 41.1147 16.1969
1 34.5538 42.319 42.033
1 31.6445 27.2648 25.6551
1 19.6526 1.97529 25.381
1 37.1005 42.2028 18.6604
1 19.7475 35.3492 28.0489
1 1.87899 27.5914 35.9251
1 3.74377 22.4649 18.7512
1 25.4312 32.2587 26.5658
1 39.9141 21.3146 37.7104
1 7.67077 27.8371 20.3047
1 8.96902 25.9982 32.5338
1 12.8837 29.0162 36.9266
1 26.761 36.1636 20.915
1 31.2488 38.0241 32.0112
1 42.0455 8.00532 13.0346
1 38.7769 7.22536 25.2796
1 33.8551 26.6978 13.1947
1 11.9554 11.1415 13.1534
1 14.261 8.21697 39.7045
1 22.8256 31.1472 30.344
1 8.55045 18.604 8.16005
1 4.36419 16.5311 26.1172
1 17.9996 17.3216 4.58094
1 3.61008 2.33464 20.0387
1 32.0295 33.2719 30.3828
1 7.10665 7.33727 17.4968
1 43.2349 9.93145 14.2872
1 14.5059 29.0206 38.8245
1 25.8464 40.1914 0.581562
1 35.2788 17.4001 32.3041
1 21.6618 14.5944 16.7193
1 22.6291 25.4747 23.1361
1 22.7506 0.195626 34.9393
1 14.5998 14.0875 5.26739
1 2.7699 17.8321 21.4682
1 3.49675 35.7382 37.3194
1 10.8564 0.267675 30.7203
1 29.0975 12.0089 6.2658
1 37.8132 41.117 7.04169
1 24.2013 23.4562 38.4158
1 27.7582 22.1442 26.3941
1 3.70258 36.2219 39.9464
1 29.4192 41.2701 11.1429
1 3.51819 30.4008 2.36731
1 42.8422 28.3328 41.6925
1 26.0664 29.8518 36.8991
1 22.3489 37.1413 9.60138
1 1.38975 40.3894 5.39977
1 6.48597 22.1447 40.5231
1 26.129 23.086 11.4999
1 16.2856 15.1703 12.044
1 39.3285 2.05074 3.34444
1 17.6686 25.3507 40.3783
1 3.67239 9.02989 31.0393
1 4.95458 21.2073 31.7972
1 16.965 31.1488 28.2238
1 18.3386 23.6456 25.9773
1 22.1326 21.8951 36.4599
1 23.5694 35.7691 0.2559
1 29.2081 39.2871 30.2484
1 1.52393 13.414 16.9633
1 21.8676 13.79 32.8019
1 5.6453 21.0644 35.7872
1 41.7997 37.8953 22.8415
1 15.9996 27.3525 14.3589
1 26.4912 21.4359 0.804334
1 19.2842 25.7125 31.6742
1 27.1171 17.1223 32.9634
1 38.7716 35.1639 38.9691
1 27.5136 13.7738 12.8317
1 2.97831 17.4236 17.727
1 4.04362 7.65317 27.3093
1 0.641843 15.432 34.1033
1 39.6857 7.78962 24.3203
1 41.9057 41.1829 13.1829
1 41.2603 10.7855 22.6899
1 40.5205 40.1454 25.5743
1 8.48765 21.1297 29.7618
1 16.6063 25.462 12.6357
1 31.0966 39.4027 11.2481
1 9.23956 21.0263 32.0169
1 35.9117 23.5856 15.3941
1 18.852 14.9034 30.4078
1 20.8633 23.3742 14.9002
1 11.7456 6.51465 36.459
1 33.4265 40.4792 8.92343
1 15.1534 15.2372 17.0453
1 26.8083 4.97587 1.8488
1 32.3251 9.7073 15.3308
1 21.0359 29.6134 30.1387
1 18.1809 9.43702 17.2596
1 41.0285 10.1006 8.71885
1 15.9664 21.6056 34.0602
1 18.8111 0.135089 19.8596
1 22.1039 26.9113 15.0715
1 39.1908 41.0829 35.2548
1 6.82428 38.9909 10.9576
1 18.2421 1.0928 18.8366
1 12.343 9.82295 42.6131
1 34.3268 17.7318 33.2796
1 23.6418 23.7876 11.5918
1 7.01461 9.00348 39.0706
1 42.0792 2.95681 12.2726
1 17.3674 6.97059 9.8986
1 19.0153 23.5229 33.1129
1 5.15981 33.5139 17.8592
1 37.2382 42.8562 33.4298
1 28.23 14.9516 4.0635
1 40.8151 38.6171 37.7194
1 36.815 24.2705 17.987
1 25.456 4.80904 36.7851
1 29.741 36.8142 6.4788
1 17.6907 12.8721 26.6928
1 38.6612 38.5126 1.61072
1 15.45 6.06407 10.9228
1 33.47 10.3781 15.5825
1 1.21063 17.422 25.3581
1 16.6667 8.03043 40.3471
1 28.2663 10.0323 0.713763
1 22.6407 29.787 20.6663
1 41.7783 33.4041 41.0995
1 17.432 1.65947 8.6323
1 19.7372 16.8601 17.4834
1 41.1976 14.601 42.0829
1 14.2666 31.1462 40.9389
1 18.6965 10.1016 25.942
1 0.186589 34.5399 5.7685
1 30.1442 15.4053 34.8606
1 4.35313 30.0648 4.52906
1 27.8581 11.3989 38.4292
1 2.27567 38.83 6.54704
1 37.8344 25.5406 22.532
1 30.3134 11.5521 42.5429
1 36.2655 37.5609 12.4229
1 2.90465 11.035 29.6388
1 -0.0125831 39.9413 9.54457
1 31.5707 13.1208 35.362
1 42.5637 18.6209 36.5618
1 5.04741 41.8164 25.885
1 13.2313 30.5182 26.675
1 31.5053 29.4484 0.193107
1 31.5323 17.931 34.416
1 22.4212 35.9481 23.4719
1 19.1911 22.6946 26.5539
1 41.3398 28.5165 41.2211
1 5.65057 10.1249 43.1773
1 8.06148 40.0824 26.3545
1 23.129 27.3975 27.5058
1 26.1985 35.8149 40.7223
1 23.2056 15.5198 0.418625
1 32.0187 22.5365 41.2124
1 38.3199 28.1257 22.1283
1 2.15486 16.4788 21.7846
1 36.634 30.8056 34.7505
1 19.3675 24.8215 25.6726
1 17.7667 18.7392 9.09307
1 41.9777 19.2391 29.5706
1 38.0684 16.2749 41.4909
1 25.8597 29.6286 34.4128
1 13.5189 19.7951 36.8454
1 35.8917 13.8492 32.1781
1 6.15318 42.2565 15.5534
1 19.7847 6.48026 15.5193
1 1.32279 12.7269 38.9937
1 21.6024 14.0001 20.3999
1 7.82433 20.7525 36.7524
1 40.1033 22.7926 37.6173
1 35.702 7.82985 30.6529
1 25.3682 8.19055 41.7128
1 10.0417 34.6661 0.747658
1 3.0483 24.1755 33.2454
1 37.0363 7.15415 21.2136
1 23.5352 31.9433 42.0484
1 11.5011 23.4953 41.0138
1 23.1372 10.9472 16.8519
1 29.2479 18.3064 42.4419
1 16.5476 30.3563 18.1245
1 40.7996 37.2186 15.4354
1 24.3605 37.4568 8.77124
1 15.7162 14.4681 8.71468
1 4.1547 9.52178 34.452
1 7.25516 16.9485 9.84877
1 3.17728 34.4954 35.0168
1 41.4853 42.6083 13.7865
1 25.6827 5.54038 18.4698
1 24.4777 34.9905 16.7972
1 38.8319 1.96413 25.8905
1 39.3682 2.82802 4.49225
1 12.7502 29.1491 26.5215
1 42.5849 22.6664 31.1428
1 39.4991 4.69455 7.9878
1 15.2511 19.919 21.6726
1 31.6673 19.7515 12.1627
1 21.1259 6.48022 7.01162
1 24.9382 27.9829 12.9653
1 37.16 0.350206 30.9525
1 23.4353 4.78477 35.0977
1 8.50326 20.4633 16.0911
1 15.2504 35.0629 2.11712
1 11.1768 34.0877 0.306784
1 0.904585 31.6503 18.3919
1 30.9264 24.9227 12.0248
1 8.87685 13.5203 8.42314
1 10.7678 37.0773 4.52854
1 18.6927 7.69471 19.1806
1 20.5428 31.9429 22.1289
1 24.5779 4.83468 40.024
1 21.3388 15.7149 31.6658
1 5.91031 29.6881 31.8336
1 9.35949 8.98743 38.3761
1 20.9512 19.1834 24.2438
1 3.47318 19.9312 18.3343
1 6.09003 11.1169 19.3869
1 40.4279 33.1097 39.0192
1 15.142 17.0805 18.5882
1 0.867224 41.0335 4.20792
1 19.5645 13.8347 31.2304
1 40.4267 39.3478 9.91776
1 11.1622 23.4104 37.5914
1 26.7361 7.92302 2.28194
1 19.8277 21.6273 18.1428
1 0.458152 40.3845 15.0373
1 35.4712 3.21732 20.8858
1 8.01954 25.1748 38.4593
1 24.9179 3.02221 35.4184
1 23.4708 25.5224 0.739177
1 13.1718 13.6877 6.11862
1 11.0095 32.5034 38.1005
1 37.8299 31.5075 15.7643
1 15.1949 15.7756 8.00968
1 28.479 9.59641 7.33132
1 14.9304 16.9402 21.5066
1 23.8599 21.8889 38.4145
1 10.0672 23.0179 10.3796
1 36.4619 29.339 14.123
1 29.8986 8.88008 24.9655
1 26.1756 23.2363 39.9463
1 14.5103 36.802 3.41219
1 25.7243 37.4305 12.8783
1 38.2788 36.8248 40.628
1 25.0563 23.6178 42.991
1 20.1307 22.6721 19.14
1 35.1275 4.18622 21.7905
1 15.939 12.7375 20.4533
1 37.9703 22.2662 19.4619
1 7.07446 20.977 33.1891
1 28.772 26.9677 30.245
1 37.5742 19.3471 17.6032
1 32.8485 23.9907 12.8116
1 27.8833 0.925057 11.1326
1 9.81217 16.9352 13.9761
1 4.62672 10.1521 38.4281
1 37.4386 40.5467 1.37393
1 15.5891 16.8134 13.5327
1 38.0446 -0.0842792 42.3649
1 1.1371 18.5131 26.4152
1 3.46718 23.3824 28.727
1 16.0452 33.7409 0.197129
1 32.8102 37.9499 34.0328
1 33.6109 40.8874 39.4986
1 40.8475 40.56 41.9322
1 23.3072 36.4876 24.4462
1 30.9018 8.05374 2.35037
1 5.65614 27.1806 30.5451
1 21.3092 25.1723 32.8038
1 36.835 0.222522 34.6411
1 2.86659 1.02756 21.9566
1 19.9428 9.17391 8.02436
1 39.0471 30.9263 19.6258
1 12.438 31.5546 26.0716
1 21.2083 4.75563 14.5301
1 17.5552 36.1302 28.1526
1 34.7984 28.4521 41.4817
1 8.50651 14.6436 9.24539
1 2.5321 34.2445 12.8126
1 10.6672 7.25753 37.339
1 1.90536 28.0977 9.99917
1 8.15538 1.24999 15.3458
1 36.0912 2.84323 30.0151
1 18.754 9.03628 41.852
1 23.8259 20.2725 26.0268
1 5.22349 10.1066 40.6395
1 10.6137 3.67071 14.4348
1 32.4077 35.3882 31.2522
1 24.8586 0.638216 3.68908
1 24.8614 0.727659 32.3562
1 37.4196 1.33169 28.4409
1 33.9749 15.422 33.1402
1 3.36667 29.2908 39.897
1 1.72536 26.3804 33.7946
1 36.4692 13.2342 17.0979
1 29.0324 23.3568 11.5441
1 40.5002 7.32822 22.1327
1 17.3183 17.8052 42.2395
1 16.8118 28.7653 16.0891
1 7.27242 14.6166 9.73962
1 22.368 3.02191 31.2914
1 24.8748 7.61541 3.87553
1 23.9244 41.2789 35.0879
1 2.98715 14.8978 29.0317
1 5.92273 22.6366 1.07085
1 39.3119 34.0292 12.0929
1 8.94774 19.596 1.15335
1 21.9252 12.9858 21.3085
1 13.5691 7.49254 11.9251
1 10.3764 23.5653 28.8523
1 3.17646 10.2969 38.7096
1 1.41633 11.864 32.6581
1 0.482113 15.0264 24.7112
1 3.05437 23.9776 26.5719
1 13.2947 32.8379 42.3999
1 29.38 12.1704 26.1644
1 39.5499 40.6781 37.9926
1 19.2961 33.5299 7.84955
1 16.9758 11.185 22.6539
1 15.5388 26.9614 28.7536
1 36.1811 13.0908 3.81441
1 19.1588 0.658793 17.6678
1 27.1181 6.62376 9.11329
1 26.3422 33.1782 35.3177
1 19.1802 7.81502 8.51021
1 19.2049 13.0466 7.34512
1 34.7639 26.7979 33.311
1 42.1187 1.23465 7.4406
1 23.9948 35.545 6.73561
1 38.646 33.2148 37.4217
1 36.8213 42.0985 4.97673
1 12.5021 26.6446 35.9377
1 39.4476 14.0174 2.87672
1 40.7037 14.9226 27.9871
1 39.1024 32.1379 7.998
1 17.6709 23.7954 39.9674
1 32.5972 33.003 24.4893
1 41.4854 36.4348 18.402
1 7.34031 42.3067 14.4376
1 28.5993 2.91114 38.8334
1 35.6719 18.6612 25.7476
1 3.40495 0.850706 25.5557
1 30.0224 43.0136 20.2041
1 2.91327 16.3802 15.4914
1 2.93981 29.6438 27.7483
1 8.98279 25.1914 22.7657
1 33.335 6.55671 40.6793
1 28.3703 20.9451 41.8951
1 15.9264 20.3919 12.7952
1 21.5799 36.8352 2.33623
1 36.0422 22.3146 16.4279
1 30.2123 28.9139 29.4976
1 2.96452 9.97425 28.6839
1 17.3106 11.2053 18.9055
1 33.1651 42.1794 40.0656
1 1.82528 31.3179 40.7469
1 21.6157 2.03709 13.5546
1 11.663 8.95609 40.5468
1 2.28613 25.1323 39.4996
1 36.7098 30.277 23.1399
1 6.51353 22.8677 3.59979
1 0.786392 11.2798 14.2566
1 8.06624 26.8491 11.7736
1 26.5029 4.40608 41.9039
1 18.6151 24.3003 6.57506
1 19.0302 23.2814 41.8986
1 17.2689 25.6702 23.8561
1 26.9345 22.6043 31.5012
1 27.1146 9.82205 23.9514
1 3.40313 26.1178 6.31948
1 34.8946 13.2979 26.1661
1 19.6129 31.4684 42.3687
1 37.531 -0.270201 41.0189
1 9.03511 6.14069 16.3499
1 16.3808 22.675 12.0518
1 36.9846 21.5927 23.5223
1 22.8196 31.6073 18.8085
1 37.3847 27.6091 17.2129
1 16.0734 20.2931 2.50786
1 24.4086 16.2122 43.0738
1 2.72864 28.2187 23.6347
1 24.054 17.0818 5.72675
1 1.76367 15.7868 31.1504
1 38.7078 32.5676 16.17
1 16.4863 16.5559 12.325
1 41.7559 3.38675 14.6456
1 25.3922 6.69108 41.3794
1 30.6573 2.30387 41.731
1 41.7338 2.47893 9.94867
1 35.5153 42.4575 6.89504
1 16.4725 18.5553 11.2344
1 6.62471 20.9301 10.5198
1 31.1857 32.9637 24.1828
1 7.99811 18.7765 17.6593
1 24.1798 0.78565 37.38
1 20.3908 1.04325 26.2904
1 21.3679 25.8044 15.6952
1 15.5735 13.2053 21.8312
1 16.0624 18.1474 42.1268
1 9.35183 4.83515 15.8888
1 38.2041 4.67499 26.3117
1 26.6023 1.01373 34.003
1 30.2088 10.9421 26.0015
1 9.873 6.10684 34.8378
1 37.8039 12.1887 20.8359
1 3.62757 34.8688 16.4341
1 21.3882 19.296 30.3572
1 31.7906 27.3976 41.85
1 20.9419 25.1754 19.9425
1 27.3611 38.9993 11.0341
1 19.4361 4.0065 16.0079
1 5.2228 27.7284 41.804
1 5.10282 17.7134 25.7461
1 7.38531 20.6266 30.8469
1 25.1815 34.4452 21.0133
1 18.4765 26.3908 24.1748
1 18.8155 35.5666 2.19043
1 15.8642 26.778 19.4376
1 9.77872 27.0254 25.2889
1 12.2304 41.7191 41.9257
1 3.00714 11.8711 1.8215
1 24.8803 37.6447 0.756657
1 42.6046 37.6759 39.7803
1 16.7868 28.5539 39.3019
1 26.2536 31.1102 34.2567
1 21.8297 22.9974 22.5704
1 31.5868 10.3935 38.1273
1 25.5073 25.5827 12.1347
1 13.7398 10.1892 11.7603
1 20.3964 12.1296 0.436495
1 31.1825 3.11218 21.8094
1 5.73899 20.7536 33.3138
1 8.19495 37.3815 4.89228
1 6.53465 15.8011 10.1056
1 38.3508 28.3803 40.4376
1 30.5236 7.19906 6.65781
1 0.558487 34.1658 21.548
1 7.00762 27.7159 5.92286
1 41.047 0.969996 5.34611
1 37.9465 42.2688 30.707
1 17.0672 20.6498 10.4718
1 38.2022 2.2761 2.1286
1 4.96824 1.03313 27.3604
1 42.0889 29.6895 0.760094
1 40.0656 24.5549 32.6428
1 15.2874 1.64691 10.0015
1 34.1812 32.0951 32.1792
1 18.5833 8.03306 16.8117
1 12.0381 8.79048 13.226
1 35.6138 8.80796 23.9612
1 4.74129 23.497 1.19194
1 41.2677 0.64755 23.3618
1 0.655303 20.2236 34.8228
1 24.0395 27.6039 23.3647
1 32.0106 11.6353 3.30389
1 33.7676 11.7744 34.0871
1 10.7539 27.4548 26.1126
1 2.50523 39.912 2.40961
1 23.7816 32.1978 21.4538
1 5.95804 20.6355 30.4503
1 24.671 11.235 24.1367
1 15.8703 22.024 22.7911
1 6.23866 34.4692 37.3095
1 19.1051 5.34919 16.2462
1 18.5719 28.882 29.4113
1 24.5347 24.5847 29.4015
1 8.75062 1.86027 30.3454
1 18.2626 18.2981 40.9167
1 41.0317 11.4534 25.2506
1 26.3174 11.1419 38.288
1 29.4345 14.0734 35.035
1 2.13965 12.7141 10.6726
1 23.0436 8.93138 10.9041
1 25.0906 15.7616 33.5804
1 18.7191 28.0495 5.3446
1 3.69802 21.2376 17.9038
1 12.6311 20.1103 8.62815
1 3.95087 31.2096 31.5296
1 28.4039 40.8793 19.6297
1 25.2435 12.78 13.9139
1 1.86705 22.2065 35.821
1 11.1535 8.72582 14.3616
1 31.4375 36.5889 10.8868
1 19.3391 37.4846 17.3294
1 19.1927 3.30991 25.6252
1 38.1284 37.4536 17.8985
1 14.0015 8.81581 40.9518
1 5.58273 17.7608 24.4995
1 15.0207 13.0378 4.41637
1 -0.126572 13.7122 40.73
1 24.9528 37.4815 32.9645
1 21.1771 41.0426 32.4068
1 12.9072 23.1411 37.9156
1 28.0341 29.2433 1.22006
1 9.45695 28.3455 33.3669
1 21.7528 6.56601 34.6791
1 10.9905 18.9581 37.9801
1 24.114 34.8134 18.3357
1 7.04997 14.8414 19.3817
1 36.3366 21.6604 39.1638
1 9.74239 19.4734 40.6073
1 2.95854 26.8217 23.2738
1 8.73653 34.3422 39.008
1 19.6279 1.4978 23.9963
1 32.9781 6.16444 16.2865
1 38.7136 19.973 19.7979
1 36.9926 29.1726 15.5815
1 15.3525 43.0337 31.0595
1 16.8481 20.5686 34.9942
1 21.0373 15.4147 20.7987
1 34.886 5.61061 41.9719
1 14.2504 20.3763 35.8825
1 21.5758 24.9511 2.33019
1 2.70507 31.7257 4.25033
1 24.8947 19.3701 4.20689
1 23.6744 27.8973 13.4393
1 32.4921 26.5046 12.9397
1 37.7018 42.2672 38.4749
1 20.4652 40.5374 23.0608
1 41.4949 5.93826 18.5214
1 40.937 34.8518 0.0887857
1 17.522 24.0392 8.84454
1 37.7154 33.4847 14.1972
1 20.4833 2.9945 36.2031
1 36.8845 3.40653 20.534
1 23.0521 22.3899 25.0607
1 31.5894 38.0367 10.9706
1 38.6034 10.8755 6.88512
1 3.91042 37.9254 7.79785
1 8.58688 25.0878 13.477
1 10.9388 39.8072 7.59592
1 41.1283 2.03793 14.6533
1 21.7613 38.7254 11.6589
1 3.31091 25.0416 43.1362
1 8.20302 28.8811 32.7665
1 0.580215 29.0012 11.7878
1 17.4488 40.2874 6.01375
1 13.8649 5.6648 35.7209
1 20.1239 23.3118 16.4102
1 25.113 6.27358 36.8768
1 33.0061 34.5754 5.94221
1 35.1899 27.2201 24.6481
1 14.4231 34.4366 26.9883
1 15.5493 20.8273 13.952
1 27.1329 30.2327 1.88349
1 6.60965 35.3683 43.2551
1 12.5827 18.1788 10.0609
1 21.2481 36.1569 9.90094
1 38.2999 17.4691 40.7139
1 8.10092 19.9172 18.5148
1 14.3856 24.7264 17.113
1 24.1636 42.5767 37.1853
1 4.55855 6.0257 19.874
1 29.2394 4.79163 22.3591
1 6.18328 35.774 21.8452
1 27.6148 17.326 3.52619
1 32.7058 1.19991 41.7868
1 2.45454 33.5051 10.5226
1 30.9008 23.2869 41.4414
1 32.5166 22.6538 12.5306
1 40.9121 42.1682 15.0511
1 7.29712 30.8752 22.3035
1 1.65968 27.3789 3.39564
1 16.7063 3.45996 10.3681
1 41.8708 37.3004 28.305
1 23.444 38.133 31.3487
1 10.9094 25.2773 27.3087
1 0.612808 34.4665 31.0652
1 41.2596 15.2709 39.6892
1 33.8474 24.3487 13.847
1 26.9795 6.62644 38.3873
1 15.5764 14.4774 14.5074
1 34.1448 19.0999 33.8777
1 12.4822 25.1854 36.6394
1 8.89576 39.586 25.3152
1 2.55881 42.8447 20.7986
1 26.1241 26.1025 39.8495
1 33.4574 43.043 41.2015
1 33.3976 8.45579 34.9987
1 10.7423 18.2354 1.96955
1 33.7426 11.6611 15.004
1 3.90475 11.4123 42.0606
1 5.8042 38.1298 4.32014
1 16.8235 25.0411 30.4356
1 11.9559 6.27157 13.5982
1 35.4432 11.6932 31.5325
1 25.3315 28.1684 23.8489
1 21.6882 15.7951 16.1688
1 6.42855 20.0194 24.9529
1 33.1545 22.868 26.4628
1 17.0842 30.3715 11.0614
1 21.5916 17.8911 30.8475
1 35.4438 12.1841 16.6339
1 22.842 36.033 7.38744
1 25.4615 28.0672 28.0752
1 15.8092 23.5476 23.0629
1 42.9209 33.4554 0.265928
1 23.8171 3.95682 11.4304
1 37.8217 14.8638 0.546594
1 30.8489 1.06117 8.67286
1 19.6733 3.26399 7.67109
1 18.1299 37.2543 3.61485
1 24.1999 37.7573 14.5971
1 36.3845 20.5769 40.0766
1 23.9227 40.2827 26.6926
1 30.0745 34.831 12.0417
1 41.2453 37.7953 25.7938
1 25.4273 2.59354 40.4977
1 24.6012 20.8658 31.3358
1 27.1901 14.9566 34.5903
1 21.4777 28.2409 17.3752
1 35.8092 39.5816 39.1564
1 25.5808 10.277 39.3576
1 42.663 10.1551 11.8205
1 3.48956 25.3257 26.6407
1 28.5729 11.2435 39.8114
1 9.81959 33.76 39.8703
1 37.1493 27.8737 22.9384
1 6.94583 10.3684 0.992506
1 15.3078 16.4885 16.0354
1 31.7865 31.8052 30.4106
1 4.84507 7.15531 20.8265
1 33.2651 12.3859 3.6454
1 15.8329 24.5261 13.5597
1 20.0034 20.4021 18.6275
1 42.5591 29.0338 5.47049
1 31.175 22.3046 12.0103
1 9.87083 22.0613 11.6426
1 29.0508 28.9792 28.652
1 21.1098 26.5167 19.4558
1 27.6777 10.6718 7.54718
1 6.18739 8.72635 19.3202
1 41.0227 38.4726 39.0573
1 14.8033 1.84078 32.7535
1 4.71166 12.0202 22.6284
1 5.98118 28.2448 3.54
1 0.722945 33.326 2.64366
1 27.3934 26.8402 11.9869
1 2.57752 21.4861 33.5477
1 26.8951 2.94706 37.0144
1 8.47336 26.4434 22.1862
1 5.5987 9.62771 39.2762
1 36.425 23.3561 32.7834
1 36.323 28.9671 41.2544
1 30.3173 13.7381 13.3147
1 16.1185 14.5455 2.56597
1 0.414117 11.3973 11.6913
1 1.32015 39.4995 8.93874
1 2.74681 12.4204 28.8027
1 33.3483 36.0131 7.71314
1 3.39692 5.87903 22.6083
1 11.8638 29.3763 36.0569
1 29.9826 41.8964 10.1102
1 2.30598 38.7211 9.71742
1 13.9826 22.3057 32.3932
1 5.26932 23.8058 3.60871
1 14.6929 25.7497 29.0269
1 42.2953 7.54796 17.027
1 8.03624 24.8805 34.12
1 16.7193 40.7867 30.2066
1 36.4226 21.8819 32.5187
1 20.1199 11.0216 13.0557
1 42.6253 13.8465 24.7383
1 26.5767 31.474 12.0171
1 28.5773 37.5212 21.3436
1 7.94427 32.3628 36.22
1 10.6239 26.2088 34.4482
1 42.0084 40.4501 21.3879
1 6.8257 35.6364 41.6756
1 25.1781 33.3975 40.8896
1 3.6163 8.21614 24.1964
1 16.4156 29.0869 19.1239
1 9.50821 19.5169 13.0991
1 6.75061 29.2804 18.75
1 2.34278 39.2045 11.16
1 28.3263 0.988221 37.2042
1 40.0895 14.652 1.61449
1 32.6791 10.2361 37.2142
1 16.9311 30.5975 41.4965
1 25.3035 7.22662 10.6845
1 8.22827 26.6012 20.7486
1 22.1326 37.1636 22.5465
1 24.0345 33.6178 29.6839
1 29.4967 39.591 31.7079
1 9.57098 12.417 15.5789
1 2.81809 25.9182 24.3443
1 27.3143 7.07657 39.6525
1 25.2182 0.113695 39.5183
1 26.4054 4.50132 17.7308
1 34.1272 30.0615 -0.104689
1 9.21215 11.2527 16.3624
1 13.7671 22.6372 42.812
1 30.5768 23.6215 11.6067
1 21.543 8.8046 40.9143
1 34.5323 9.58674 32.5006
1 22.0328 1.1992 35.7613
1 14.159 42.5174 10.0053
1 18.7715 33.0384 19.3267
1 14.9144 41.9095 8.90574
1 38.1212 3.66716 4.78326
1 20.6486 9.89547 33.4638
1 36.8868 29.9363 41.9466
1 25.3719 11.5871 37.2432
1 12.5787 16.8217 10.4103
1 42.622 31.8571 39.1446
1 10.2518 2.34517 14.8677
1 26.2442 23.0881 42.0847
1 22.26 31.9533 29.3925
1 22.2864 5.56821 12.3396
1 0.629036 17.6719 34.4073
1 37.3477 11.5249 18.6358
1 34.8072 35.9395 9.72977
1 26.3444 39.8564 42.2828
1 33.5573 14.7318 0.894775
1 29.6049 22.9408 41.4616
1 8.07977 3.18964 30.4825
1 22.3159 40.9647 12.421
1 5.56768 22.3095 39.5122
1 -0.0547446 29.4942 9.17592
1 27.3265 28.1874 0.503239
1 27.8937 2.11589 37.8248
1 5.98278 26.9699 42.6143
1 4.95915 23.3126 30.4252
1 12.385 24.7961 29.4985
1 16.6086 28.5313 14.8726
1 19.3818 13.9128 6.2789
1 4.72805 28.9724 42.0128
1 23.9356 38.3837 11.1735
1 37.2655 11.6781 21.9506
1 37.6751 17.9072 24.0761
1 26.1927 41.1456 29.4517
1 21.7814 11.8913 42.9831
1 38.1144 20.186 18.5266
1 37.1813 28.0585 34.3753
1 26.031 31.2892 36.7437
1 6.4912 5.19041 29.5265
1 28.9255 21.432 27.0475
1 2.66753 2.92312 23.594
1 1.00505 12.9071 36.3171
1 18.5333 33.379 0.400347
1 38.4149 14.9535 29.8656
1 6.44177 21.1543 11.9132
1 24.7616 21.3807 2.76389
1 41.7899 13.7671 0.0706106
1 7.43284 3.76943 16.598
1 5.91726 39.4033 11.9691
1 25.2305 32.0756 40.4371
1 34.8277 42.8817 19.5585
1 4.35714 36.1426 42.626
1 18.5541 38.8406 30.0578
1 19.4541 23.8324 5.40594
1 21.927 41.9387 26.4615
1 23.0254 30.2729 26.2554
1 25.9377 1.51488 41.2551
1 4.82559 18.8605 26.481
1 34.5308 18.4695 13.9916
1 6.8493 34.5361 22.0031
1 36.7337 0.99683 40.8384
1 41.6485 39.6657 41.0428
1 41.5603 39.5199 11.3321
1 20.1189 12.0121 12.0794
1 26.8058 10.3722 41.1307
1 23.3763 40.7885 33.8372
1 29.8495 14.0902 42.7922
1 36.3228 11.4758 30.5031
1 2.98408 27.728 25.9376
1 19.806 38.1893 16.2775
1 17.4297 34.0005 0.868333
1 25.2651 1.42531 33.5597
1 39.1708 23.8397 37.9647
1 14.7664 27.5462 38.5735
1 29.8857 2.76749 40.786
1 32.1591 9.60698 42.6392
1 9.93114 18.0626 12.8182
1 17.478 9.43854 9.2056
1 17.544 39.8468 29.3469
1 3.34562 19.1574 15.8429
1 21.8174 19.7747 14.0149
1 42.1414 20.9611 36.6589
1 1.53525 27.4772 1.82593
1 37.0456 41.7903 3.49763
1 23.3195 23.7302 24.6689
1 39.9046 6.88321 23.3173
1 39.8318 3.91859 19.3619
1 29.6025 17.7308 28.0514
1 31.0811 24.6516 41.5794
1 42.3078 11.4621 7.13042
1 34.2291 22.143 33.3744
1 25.9638 2.14586 35.9644
1 37.1504 12.8827 18.3036
1 28.1677 19.9917 0.712576
1 33.8321 16.0031 13.4647
1 38.8485 5.04269 19.4814
1 35.7772 5.21906 22.077
1 31.4177 26.0738 31.181
1 1.68487 30.8257 39.3594
1 38.2626 0.444428 27.7735
1 20.4117 16.0455 8.96643
1 43.1712 13.0448 42.8897
1 6.08106 10.0897 41.8555
1 28.6927 25.1802 41.2444
1 0.913126 19.1051 33.8984
1 23.4157 26.1507 27.963
1 23.7955 5.2697 11.6991
1 11.1618 17.6369 3.35418
1 10.1678 30.893 35.7808
1 16.109 13.2412 3.26642
1 28.2911 11.3263 41.1774
1 18.5696 19.233 27.923
1 4.56445 13.0373 25.0433
1 16.6723 18.8154 24.8723
1 34.5715 34.3746 6.26535
1 22.4953 17.377 14.2077
1 5.68049 38.6014 5.70329
1 -0.0130069 32.3588 17.5036
1 20.6732 6.80947 39.5076
1 37.5029 31.7551 14.3751
1 26.6287 18.4833 10.8427
1 13.101 18.2935 41.4996
1 16.1549 42.4871 8.62559
1 33.5798 25.6695 25.7763
1 18.9008 8.63079 25.8242
1 8.92845 40.3116 11.6844
1 18.2629 33.5723 13.0324
1 21.1823 34.2401 21.7952
1 23.2712 37.811 24.8027
1 0.967152 11.8537 15.4836
1 26.244 14.9573 6.32193
1 14.0511 3.55283 11.4533
1 10.8705 38.011 5.40083
1 5.07131 15.6351 23.8961
1 35.5708 32.7339 13.2685
1 21.6262 23.0259 3.66747
1 25.6477 40.5787 12.0766
1 13.463 4.7523 34.6578
1 3.27865 40.1301 20.7368
1 3.12259 26.7043 17.4738
1 22.654 39.6547 12.3525
1 27.3875 35.2124 21.8112
1 23.4813 18.9907 12.6601
1 21.4814 35.2185 7.71883
1 32.3388 8.51906 15.8179
1 23.7558 32.7857 16.5952
1 38.0675 14.1808 22.8594
1 27.8694 6.73919 41.949
1 15.9121 13.3222 17.964
1 8.33326 26.5743 31.6472
1 32.6786 24.4756 32.9757
1 24.1566 42.9319 29.347
1 21.841 24.4789 13.1309
1 27.8399 27.1411 29.2644
1 0.873601 32.26 41.5617
1 30.0826 12.9773 4.22542
1 28.1116 20.8258 32.6282
1 5.42453 29.0441 2.65992
1 11.213 24.6753 36.6363
1 24.0628 1.2964 31.35
1 32.8941 17.7589 11.9281
1 20.0246 22.3949 5.60743
1 20.6155 16.7692 31.0158
1 40.4711 39.2282 34.4403
1 14.5385 40.3636 28.5633
1 0.737765 40.3554 6.82817
1 24.5474 26.7326 34.7869
1 41.3745 23.0902 31.5514
1 17.5271 31.654 14.6982
1 34.9022 12.8754 32.3046
1 25.6595 20.3893 31.9257
1 25.2235 39.0445 1.43625
1 22.057 16.6622 7.39697
1 22.0384 27.6677 26.7805
1 19.0269 16.8154 2.74051
1 11.7385 18.7764 41.6189
1 19.1192 8.0862 40.8764
1 1.52279 39.5296 7.47383
1 8.57248 3.72886 31.6246
1 2.45235 21.7907 27.3949
1 39.9042 40.3341 39.4461
1 8.31392 1.15526 29.3389
1 18.3499 33.7916 16.62
1 24.4317 19.2946 40.8709
1 22.0547 39.1616 3.26914
1 16.1247 14.5763 24.6348
1 15.0035 23.5008 20.6682
1 3.71769 7.02668 21.8744
1 1.92833 32.7531 4.72302
1 17.1257 3.7456 35.4558
1 30.527 6.33585 16.0553
1 6.15042 28.9713 7.98869
1 0.86579 12.2671 35.0379
1 6.33482 22.4181 5.9341
1 19.2393 34.9285 11.1695
1 37.1376 15.8588 42.5984
1 20.5355 37.3428 3.05425
1 40.3902 10.2076 25.4489
1 25.2575 38.8836 35.0113
1 27.4422 30.981 27.6326
1 27.8133 30.4371 23.8835
1 21.5307 21.8689 23.2165
1 17.4372 41.735 31.0328
1 9.11206 2.3738 15.5596
1 26.4858 30.7233 23.5326
1 42.8756 42.4077 8.42251
1 37.5607 7.83197 28.8039
1 35.7721 15.0302 15.5805
1 21.3068 35.8318 1.10529
1 4.4616 32.0149 13.3422
1 22.0757 13.7668 3.39619
1 32.3388 25.3192 41.1957
1 37.368 0.456696 18.5844
1 3.24 15.5748 13.1947
1 0.175682 11.6876 19.0552
1 6.50323 13.5024 9.0971
1 15.0798 40.0591 6.03789
1 20.4881 38.7198 21.2973
1 23.8271 13.4674 34.5277
1 17.5863 5.68008 9.90384
1 17.1518 10.5413 -0.0665841
1 5.84225 26.2448 39.8417
1 36.9942 20.2512 24.2561
1 31.6151 5.34836 22.8999
1 41.5853 38.9557 19.1512
1 2.71312 13.6633 29.6684
1 37.8045 40.7447 2.87954
1 33.2177 23.0482 40.6079
1 21.8165 33.7159 24.1333
1 0.965542 21.7459 29.5678
1 26.0638 12.9281 36.0404
1 25.5836 18.309 11.699
1 28.0971 39.7598 29.3951
1 16.0988 7.01271 38.3451
1 23.7431 42.393 35.5776
1 7.10291 20.8942 35.583
1 15.2905 41.0687 29.7864
1 36.0093 42.5733 2.59171
1 2.66669 37.9776 42.2666
1 8.30816 38.6416 24.4273
1 12.1474 23.2379 1.72308
1 12.2084 37.5803 25.8862
1 1.74833 11.1202 35.1856
1 3.32705 17.636 15.0849
1 8.49191 25.7458 6.39907
1 31.1713 12.1791 4.45673
1 3.82822 34.6938 36.2971
1 8.13557 16.0746 17.4662
1 38.6795 30.7661 0.20694
1 42.1314 24.3984 38.4074
1 7.56562 6.66308 33.8532
1 36.2017 16.508 14.7657
1 28.157 4.35958 38.9411
1 1.88551 35.2571 34.4003
1 30.5891 26.8033 42.3057
1 2.60575 19.8192 24.9346
1 17.4534 14.2519 26.7306
1 35.6325 27.2382 14.9948
1 39.0084 32.1144 5.30189
1 9.60815 19.4582 38.018
1 4.93255 32.871 35.5201
1 2.39496 23.6367 25.1589
1 27.9919 41.6619 11.4447
1 1.23333 32.4418 19.716
1 27.1437 2.21852 10.7611
1 7.7247 21.9869 25.7221
1 32.0489 23.8749 26.6004
1 40.3203 2.30011 16.9596
1 36.0721 1.7701 32.8162
1 40.9848 5.26404 9.66923
1 33.9933 1.79433 5.39438
1 35.0791 33.4849 33.7572
1 23.0668 14.9089 1.62373
1 20.451 28.1627 24.7803
1 30.4603 17.589 11.5871
1 11.1556 31.1945 25.4861
1 41.0832 4.52103 18.3788
1 14.9452 15.7069 18.4061
1 6.5253 28.683 4.84242
1 33.4222 3.89375 16.5554
1 23.0008 13.3844 15.0596
1 37.2691 24.1181 22.5205
1 26.4433 6.95306 16.5921
1 9.99439 42.9143 14.1674
1 34.2025 27.9989 13.3752
1 25.7058 10.1369 23.6183
1 20.7066 17.3317 22.5818
1 30.6915 33.8138 29.5885
1 4.92695 32.7965 15.6666
1 41.2271 37.9161 32.6902
1 35.1566 6.69545 1.0416
1 10.9713 11.1317 14.1015
1 39.8058 39.7596 5.89597
1 0.892643 28.8225 1.5238
1 3.59658 27.3241 38.2565
1 32.5861 33.9392 4.70507
1 2.13304 36.236 37.5955
1 21.4446 26.5303 26.2712
1 3.72671 29.7737 41.1956
1 8.10175 25.3933 15.7482
1 0.392827 30.8431 38.6346
1 39.6456 40.813 16.5505
1 37.6583 8.70277 19.1514
1 1.90724 32.1157 22.0025
1 2.24494 30.117 20.3882
1 19.1212 36.2755 13.1122
1 22.6405 38.0076 10.8248
1 6.63209 24.4514 33.3777
1 39.0727 29.2787 41.3936
1 19.304 6.33326 8.46479
1 42.0019 7.34594 14.3885
1 33.7932 38.6243 21.2661
1 24.1228 39.4368 2.15254
1 23.7729 2.50971 5.0147
1 24.8638 37.6135 10.1768
1 8.11097 25.1126 39.8063
1 3.5015 0.516082 24.2459
1 12.9248 26.6253 27.6488
1 15.6432 16.7819 23.7933
1 25.667 29.9786 1.93114
1 38.0705 39.2903 0.793497
1 32.4579 39.5573 35.7029
1 35.1639 26.3503 40.3202
1 4.3762 10.8989 23.0531
1 35.0938 12.3043 5.08456
1 4.25452 32.917 14.3556
1 0.901954 22.8145 36.8004
1 17.6792 10.5027 23.782
1 5.13464 7.71237 33.1311
1 35.7903 35.2591 13.134
1 4.3295 11.3463 1.56717
1 4.39195 25.4648 10.9289
1 4.02684 11.6896 25.4642
1 7.94133 24.2404 35.4099
1 5.57064 31.2534 33.6417
1 31.2245 10.2631 41.6372
1 9.65457 29.5164 24.7971
1 7.85921 20.8324 4.70739
1 35.202 31.8243 1.82171
1 21.1399 26.9036 17.9842
1 0.481491 39.4756 42.8128
1 25.5969 34.5774 26.5589
1 7.14312 26.1572 41.9878
1 36.7324 38.3677 11.2311
1 22.6933 26.9188 13.6304
1 4.26785 24.6056 28.7397
1 41.5716 33.8433 15.3522
1 22.4748 2.51877 37.8333
1 11.7405 26.4943 26.8633
1 34.036 5.17578 16.4055
1 33.8868 36.4157 11.0028
1 3.65477 27.3526 28.4795
1 15.8915 18.9862 12.5357
1 4.62128 26.3607 37.6881
1 42.4356 32.7814 14.8137
1 0.36997 37.1097 38.7962
1 14.3047 11.4643 2.3403
1 40.1431 16.0316 40.2093
1 10.2342 37.1899 24.387
1 24.8117 41.7268 11.8725
1 27.3598 40.694 30.2405
1 34.9355 33.164 4.08087
1 21.7993 0.763205 28.242
1 34.0082 9.67018 6.4242
1 27.4638 30.4397 11.3946
1 31.058 11.108 5.25165
1 36.9691 34.6973 9.07818
1 26.9794 32.4171 26.9692
1 25.7195 23.062 30.9893
1 30.7162 34.2427 23.596
1 25.4553 33.3612 31.6843
1 21.2627 4.36234 33.2813
1 27.4786 4.48595 9.68717
1 5.72398 29.9386 6.70689
1 31.1997 42.1928 20.4673
1 38.4316 26.7253 21.307
1 19.2757 7.74048 26.6449
1 37.5027 24.1366 33.0456
1 35.4091 2.8387 37.9474
1 9.15464 22.9793 16.5134
1 21.402 12.0557 4.98108
1 26.6253 11.5695 1.33307
1 20.479 20.0622 38.3424
1 27.5395 16.146 4.23136
1 17.9764 7.61728 40.1245
1 17.5678 1.4851 33.3239
1 40.915 0.256432 4.06608
1 14.9091 38.9305 5.44135
1 12.2112 12.9043 5.03518
1 9.2083 20.1919 36.5978
1 20.8301 17.0378 16.4949
1 29.8444 37.9122 30.0122
1 29.8734 40.5655 34.5921
1 42.5893 15.929 26.95
1 10.8184 17.719 11.6889
1 30.8145 6.55088 3.12352
1 41.7345 3.84341 13.392
1 34.3707 18.1126 41.9709
1 40.0026 30.8238 0.662448
1 6.25897 18.8665 24.0128
1 17.5511 31.3051 16.1357
1 38.194 20.0767 31.3705
1 32.5972 3.63004 15.4486
1 25.9968 2.66268 1.9697
1 0.439012 12.572 20.0765
1 37.7124 6.84726 27.524
1 26.8128 3.25815 43.0289
1 25.948 39.1169 37.8295
1 16.3338 29.7627 28.6525
1 9.24904 24.5862 40.6973
1 3.50139 7.39569 28.7091
1 0.553912 37.7124 15.9914
1 20.6171 -0.0252212 15.2659
1 36.0883 18.8127 32.2314
1 1.83811 40.8631 14.9763
1 37.2365 25.63 33.1633
1 20.2324 19.423 16.4054
1 12.2272 33.1086 41.5947
1 26.0726 32.8862 32.948
1 16.2845 19.6108 37.2467
1 37.8214 11.6609 5.82256
1 41.0173 30.0881 42.9916
1 19.7253 19.2201 39.0829
1 15.4586 25.2188 30.3495
1 17.9298 37.5365 28.3384
1 16.19 18.6975 39.5097
1 23.561 9.84148 17.8951
1 11.8172 31.4447 37.6027
1 38.7339 18.5701 21.4872
1 37.0076 38.838 19.6093
1 2.56526 18.6391 23.8526
1 22.9747 1.45154 36.9207
1 2.01244 22.4079 30.9999
1 8.70482 32.9654 23.199
1 25.1543 9.66635 22.2245
1 12.6647 2.47956 13.2694
1 15.9649 3.26084 34.3304
1 7.68897 19.609 19.8405
1 29.023 41.2233 33.6827
1 38.5761 0.576241 26.4186
1 25.1263 27.4719 42.0578
1 26.8772 23.9661 41.0398
