LAMMPS (22 Jul 2025 - Update 2)
# LAMMPS input for LJ binary mixture with Widom insertion
# Equal sigma, different epsilon

# Initialize
units           lj
atom_style      atomic
boundary        p p p

# Create simulation box
lattice         fcc 0.8
Lattice spacing in x,y,z = 1.7099759 1.7099759 1.7099759
region          box block 0 15 0 15 0 15
create_box      2 box
Created orthogonal box = (0 0 0) to (25.649639 25.649639 25.649639)
  2 by 2 by 2 MPI processor grid
create_atoms    1 box
Created 13500 atoms
  using lattice units in orthogonal box = (0 0 0) to (25.649639 25.649639 25.649639)
  create_atoms CPU = 0.001 seconds

# Set masses (both equal to 1.0 in reduced units)
mass            1 1.0
mass            2 1.0

# Set up 50:50 mixture
set             group all type/fraction 2 0.5 12345
Setting atom values ...
  6702 settings made for type/fraction

# Define groups
group           typeA type 1
6798 atoms in group typeA
group           typeB type 2
6702 atoms in group typeB

# LJ parameters
pair_style      lj/cut 3.0
pair_modify     tail yes
pair_coeff      1 1 0.8 1.0    # A-A interaction
pair_coeff      2 2 1.2 1.0    # B-B interaction
pair_coeff      1 2 0.2 1.0 # A-B interaction

# Initial velocities
velocity        all create 5.0 44444 dist gaussian

# Neighbor list
neighbor        0.3 bin
neigh_modify    every 1 delay 0 check yes

# Time integration (NPT)
fix             1 all npt temp 5.0 5.0 $(100*dt) iso 1.0 1.0 $(1000*dt)
fix             1 all npt temp 5.0 5.0 0.5 iso 1.0 1.0 $(1000*dt)
fix             1 all npt temp 5.0 5.0 0.5 iso 1.0 1.0 5
timestep        0.005

# Output including enthalpy
thermo_style    custom step temp pe ke etotal press density enthalpy vol
thermo          1000

# Equilibration
run             10000
Generated 0 of 1 mixed pair_coeff terms from geometric mixing rule
Neighbor list info ...
  update: every = 1 steps, delay = 0 steps, check = yes
  max neighbors/atom: 2000, page size: 100000
  master list distance cutoff = 3.3
  ghost atom cutoff = 3.3
  binsize = 1.65, bins = 16 16 16
  1 neighbor lists, perpetual/occasional/extra = 1 0 0
  (1) pair lj/cut, perpetual
      attributes: half, newton on
      pair build: half/bin/atomonly/newton
      stencil: half/bin/3d
      bin: standard
Per MPI rank memory allocation (min/avg/max) = 3.606 | 3.606 | 3.606 Mbytes
   Step          Temp          PotEng         KinEng         TotEng         Press         Density        Enthalpy        Volume    
         0   5             -4.0407837      7.4994444      3.4586608     -0.088736676    0.8            3.3477399      16875        
      1000   4.9801619     -1.1035953      7.4696895      6.3660942      7.3616329      0.62822818     18.084182      21489.008    
      2000   4.9841643     -1.0457916      7.4756927      6.4299011      4.9851948      0.51913226     16.032839      26004.934    
      3000   5.002463      -0.96938854     7.5031386      6.5337501      3.7562749      0.4426326      15.019964      30499.335    
      4000   4.9996214     -0.86244898     7.4988766      6.6364276      3.0230542      0.38513201     14.485825      35052.916    
      5000   4.9902917     -0.77044717     7.4848831      6.7144359      2.4983523      0.34037412     14.054454      39662.239    
      6000   4.9990851     -0.72541399     7.4980722      6.7726582      2.1051323      0.30476598     13.680031      44296.283    
      7000   4.9852178     -0.63773233     7.4772728      6.8395405      1.8689524      0.27608782     13.608953      48897.485    
      8000   4.9991094     -0.58580352     7.4981086      6.9123051      1.6620215      0.25270033     13.48935       53422.961    
      9000   4.9920984     -0.55599293     7.487593       6.9316         1.4915551      0.2336654      13.314895      57774.921    
     10000   4.9830322     -0.55061278     7.4739947      6.9233819      1.3242231      0.21818887     12.992542      61872.999    
Loop time of 21.0004 on 8 procs for 10000 steps with 13500 atoms

Performance: 205710.170 tau/day, 476.181 timesteps/s, 6.428 Matom-step/s
95.9% CPU use with 8 MPI tasks x no OpenMP threads

MPI task timing breakdown:
Section |  min time  |  avg time  |  max time  |%varavg| %total
---------------------------------------------------------------
Pair    | 6.1086     | 6.23       | 6.3195     |   2.6 | 29.67
Neigh   | 7.448      | 7.5429     | 7.6244     |   2.1 | 35.92
Comm    | 5.4459     | 5.6096     | 5.8496     |   5.4 | 26.71
Output  | 0.00023754 | 0.00028491 | 0.00045012 |   0.0 |  0.00
Modify  | 1.2552     | 1.2714     | 1.2814     |   0.9 |  6.05
Other   |            | 0.3462     |            |       |  1.65

Nlocal:         1687.5 ave        1722 max        1664 min
Histogram: 3 0 0 0 1 2 1 0 0 1
Nghost:        2323.38 ave        2357 max        2289 min
Histogram: 1 0 1 0 2 2 0 1 0 1
Neighs:        27413.9 ave       28411 max       26620 min
Histogram: 2 1 0 1 2 0 0 0 0 2

Total # of neighbors = 219311
Ave neighs/atom = 16.245259
Neighbor list builds = 3283
Dangerous builds = 0

dump            1 all custom 1000 dump.lammpstrj id type x y z
dump_modify     1 sort id

# production
thermo_style    custom step temp pe enthalpy press vol
thermo          1000
run             100000
Generated 0 of 1 mixed pair_coeff terms from geometric mixing rule
Per MPI rank memory allocation (min/avg/max) = 3.637 | 3.638 | 3.638 Mbytes
   Step          Temp          PotEng        Enthalpy        Press          Volume    
     10000   4.9830322     -0.55061278     12.992542      1.3242231      61872.999    
     11000   4.9726743     -0.50672732     13.022027      1.2490506      65609.021    
     12000   5.0281051     -0.46058842     13.263844      1.2103015      68964.845    
     13000   4.9740393     -0.4682081      12.878256      1.1048447      71920.005    
     14000   4.9833677     -0.45405994     12.932555      1.0740349      74311.906    
     15000   4.9987201     -0.43041091     13.030211      1.0565186      76195.359    
     16000   4.9745075     -0.4271843      12.919651      1.0232812      77648.212    
     17000   4.9938628     -0.43497141     12.909223      1.0062088      78540.751    
     18000   4.9622977     -0.40897395     12.922812      1.0033265      79236.451    
     19000   5.0501639     -0.42217116     13.032214      1.000245       79356.51     
     20000   5.0388949     -0.43643894     12.997527      0.99911667     79398.615    
     21000   4.9345393     -0.43508221     12.70221       0.97290882     79592.684    
     22000   4.9651136     -0.41786611     12.906629      1.0014559      79229.232    
     23000   4.9685288     -0.41789113     12.926316      1.0029648      79306.419    
     24000   5.0247181     -0.44444285     12.864528      0.97611141     79835.252    
     25000   5.1085218     -0.41795897     13.241225      1.0271382      78820.043    
     26000   5.00464       -0.41453973     13.041717      1.0178288      78916.04     
     27000   4.9834224     -0.42122504     12.877035      0.97596937     80555.487    
     28000   5.0128378     -0.42833608     12.96572       1.0014374      79203.469    
     29000   5.0245566     -0.42819626     13.011977      1.0057542      79246.599    
     30000   4.9387306     -0.41653304     12.814937      0.98308167     79976.026    
     31000   4.9948642     -0.43379291     12.887094      0.99595181     79013.325    
     32000   4.9721499     -0.41466764     12.943103      1.0023442      79465.036    
     33000   4.987891      -0.42883588     12.868851      0.98371642     79821.231    
     34000   4.977448      -0.41986556     12.970194      1.0240089      78104.737    
     35000   5.0276805     -0.4054573      13.119701      1.0142662      79650.343    
     36000   5.0393951     -0.42723763     13.034479      0.99846695     79815.339    
     37000   5.0062824     -0.417316       12.97477       1.0051746      79014.575    
     38000   4.9983685     -0.4258248      12.914617      0.99225452     79502.288    
     39000   5.0050899     -0.42740985     12.924829      0.98705223     79944.774    
     40000   5.0125316     -0.43799756     12.934498      0.99991023     79039.537    
     41000   4.9969739     -0.43638072     12.874359      0.99698579     78751.137    
     42000   4.9222933     -0.42252573     12.698191      0.96222936     80501.204    
     43000   4.966209      -0.39580612     12.987874      1.0121567      79159.095    
     44000   5.0349439     -0.42968166     12.96312       0.99563114     79198.767    
     45000   5.0767362     -0.40889959     13.222812      1.0160468      79948.888    
     46000   4.977828      -0.41716948     12.96068       1.0045341      79447.203    
     47000   4.9540792     -0.42901889     12.834915      1.0037241      78458.248    
     48000   5.0492263     -0.4056418      13.157877      1.0134007      79798.886    
     49000   5.0067816     -0.41323976     12.986202      0.99819154     79656.71     
     50000   5.0175898     -0.40596969     13.104331      1.027394       78636.231    
     51000   4.9846243     -0.41566326     12.915257      0.99175612     79693.245    
     52000   5.0005462     -0.42286366     12.907241      0.98173263     80167.3      
     53000   5.0399785     -0.42609276     13.063181      1.0148311      78883.267    
     54000   5.0375137     -0.42100742     13.039429      1.0062683      79217.242    
     55000   4.9831512     -0.41102735     12.930464      0.98480612     80430.851    
     56000   4.9654587     -0.42893748     12.896725      1.007998       78723.724    
     57000   4.9797927     -0.42536891     12.904912      0.99999022     79126.238    
     58000   5.0763956     -0.41568307     13.193844      1.0164193      79631.726    
     59000   5.0017847     -0.40833979     13.026482      1.0091708      79363.628    
     60000   5.0123067     -0.4052588      13.063167      1.0194355      78800.525    
     61000   4.9790084     -0.4273461      12.824278      0.97086592     80422.509    
     62000   5.013408      -0.43818091     12.893359      0.98993575     79259.484    
     63000   5.0201978     -0.41356214     13.066518      1.0140714      79214.937    
     64000   5.0383405     -0.40818059     13.036099      0.99713834     79707.027    
     65000   5.0466631     -0.42861862     13.068864      1.0120197      79078.163    
     66000   4.9564786     -0.42948396     12.81666       0.99439995     78903.548    
     67000   5.0455746     -0.41374374     13.072577      0.99045592     80669.937    
     68000   4.9871974     -0.42122229     12.898287      0.99541521     79193.199    
     69000   4.9996687     -0.39689444     13.095506      1.0255242      78897.81     
     70000   5.0059227     -0.42570286     12.930566      0.99037798     79714.217    
     71000   4.9701156     -0.4308987      12.813591      0.98481411     79368.503    
     72000   4.9913624     -0.43671777     12.861989      0.99208409     79091.012    
     73000   5.0216244     -0.40485059     13.091619      1.0024897      80322.005    
     74000   5.0438232     -0.41112049     13.109996      1.0124131      79419.372    
     75000   4.9791564     -0.41724004     13.012634      1.0279921      78291.309    
     76000   4.9111552     -0.41935267     12.789762      0.98860504     79788.71     
     77000   5.0023781     -0.40249831     13.00966       1.0023835      79583.788    
     78000   5.1067918     -0.40521214     13.325816      1.035318       79167.956    
     79000   5.0010124     -0.41580083     12.994658      0.9992111      79841.181    
     80000   4.9941726     -0.41409231     13.002896      1.0139588      78903.443    
     81000   5.0164098     -0.4321637      12.942606      0.99938865     79032.934    
     82000   4.9886353     -0.40813775     12.942622      0.98166085     80702.894    
     83000   4.971287      -0.44612163     12.759739      0.98058275     79154.981    
     84000   5.0109247     -0.41759392     12.99401       1.0076286      78990.363    
     85000   5.0353078     -0.4238903      13.028491      0.99729312     79865.91     
     86000   4.988333      -0.41980455     12.869452      0.98506801     79587.099    
     87000   4.986801      -0.43548263     12.880574      1.0032201      78538.621    
     88000   5.0190267     -0.42974974     12.96193       0.99325758     79697.26     
     89000   5.0400632     -0.41272575     13.094506      1.0079609      79659.747    
     90000   4.9790668     -0.41940917     12.933464      1.0107282      78601.896    
     91000   4.9929217     -0.43077629     12.84346       0.97614996     80011.284    
     92000   4.9832756     -0.40242774     12.97777       1.0007097      79672.269    
     93000   5.0797582     -0.40539795     13.275584      1.0408538      78623.693    
     94000   5.0040943     -0.4064472      12.985191      0.99293415     80027.169    
     95000   4.9054689     -0.42772386     12.676679      0.97721566     79389.897    
     96000   4.9778698     -0.41481644     12.974709      1.0168847      78636.439    
     97000   5.0408608     -0.43105027     12.968186      0.98677846     79875.909    
     98000   5.0444538     -0.41053407     13.090909      1.0064139      79616.203    
     99000   5.0315779     -0.40604636     13.104002      1.0175619      79114.352    
    100000   5.0236059     -0.41545756     13.032706      0.99947686     79871.505    
    101000   5.0260025     -0.40875869     13.040449      0.99343867     80322.316    
    102000   4.957355      -0.42647752     12.823102      1.0023347      78307.497    
    103000   5.0285599     -0.415299       13.017478      1.0010908      79435.043    
    104000   4.9970323     -0.40622678     13.055927      1.0116049      79632.536    
    105000   5.0081661     -0.41706628     13.015414      1.0094947      79178.849    
    106000   4.9860195     -0.43803316     12.827635      0.98561747     79267.172    
    107000   4.9942564     -0.42630973     12.913128      0.98731363     79970.749    
    108000   5.0300704     -0.42753435     13.045727      1.0214821      78354.429    
    109000   4.8992863     -0.41732202     12.72481       0.98723195     79227.161    
    110000   4.9793367     -0.4202392      12.921455      0.99345164     79811.405    
Loop time of 192.462 on 8 procs for 100000 steps with 13500 atoms

Performance: 224459.895 tau/day, 519.583 timesteps/s, 7.014 Matom-step/s
91.2% CPU use with 8 MPI tasks x no OpenMP threads

MPI task timing breakdown:
Section |  min time  |  avg time  |  max time  |%varavg| %total
---------------------------------------------------------------
Pair    | 35.509     | 35.923     | 36.267     |   3.7 | 18.66
Neigh   | 63.938     | 64.25      | 64.695     |   2.7 | 33.38
Comm    | 53.322     | 54.02      | 54.874     |   7.4 | 28.07
Output  | 0.36022    | 0.37895    | 0.3995     |   2.2 |  0.20
Modify  | 31.019     | 31.187     | 31.345     |   1.9 | 16.20
Other   |            | 6.704      |            |       |  3.48

Nlocal:         1687.5 ave        1741 max        1639 min
Histogram: 2 0 0 1 0 2 2 0 0 1
Nghost:         2087.5 ave        2153 max        2052 min
Histogram: 2 2 0 1 0 1 1 0 0 1
Neighs:          21209 ave       22277 max       20340 min
Histogram: 2 0 0 1 1 2 1 0 0 1

Total # of neighbors = 169672
Ave neighs/atom = 12.568296
Neighbor list builds = 32581
Dangerous builds = 0

write_data      final_config_1.data
System init for write_data ...
Generated 0 of 1 mixed pair_coeff terms from geometric mixing rule
WARNING: Not all mixed pair coeffs generated from mixing. Use write_data with 'pair ij' option to store all pair coeffs. (src/write_data.cpp:364)

unfix 1
fix 2 all npt temp 1.0 1.0 $(100*dt) iso 1.0 1.0 $(1000*dt)
fix 2 all npt temp 1.0 1.0 0.5 iso 1.0 1.0 $(1000*dt)
fix 2 all npt temp 1.0 1.0 0.5 iso 1.0 1.0 5

run 100000
Generated 0 of 1 mixed pair_coeff terms from geometric mixing rule
Per MPI rank memory allocation (min/avg/max) = 5.069 | 5.069 | 5.07 Mbytes
   Step          Temp          PotEng        Enthalpy        Press          Volume    
    110000   4.9793367     -0.4202392      12.921455      0.99345164     79811.405    
    111000   1.0104346     -1.1082707      1.0067724      0.13781612     58725.322    
    112000   0.9975928     -1.5417657      0.43981341     0.14381613     45555.116    
    113000   1.0005243     -1.9992878     -0.068341047    0.15752893     36873.64     
    114000   1.002759      -2.5074002     -0.60946982     0.17302331     30733.984    
    115000   1.006061      -3.0248674     -1.0851959      0.22190571     26201.844    
    116000   1.002204      -3.4881859     -1.3522067      0.37333887     22881.605    
    117000   1.0006656     -3.8958122     -1.5277631      0.57030558     20527.04     
    118000   1.0023325     -4.1837315     -1.5226527      0.81641046     19143.354    
    119000   1.0018019     -4.3330133     -1.5043785      0.96667922     18518.64     
    120000   0.99285741    -4.4367823     -1.6063716      0.98816025     18323.618    
    121000   0.99691777    -4.4924011     -1.6387745      1.003513       18273.676    
    122000   1.0046754     -4.5001806     -1.7192894      0.94258841     18246.416    
    123000   1.005607      -4.5631        -1.6577015      1.0379561      18171.14     
    124000   0.99951451    -4.5759262     -1.7567536      0.97963219     18190.665    
    125000   0.99909605    -4.6089757     -1.803863       0.97178657     18150.924    
    126000   1.0043593     -4.6667844     -1.7700286      1.0405127      18038.64     
    127000   1.0051554     -4.6785367     -1.7764238      1.0429511      18050.354    
    128000   1.0148332     -4.7332308     -1.8867713      0.99417238     17983.151    
    129000   0.99031126    -4.7662351     -1.9744951      0.97997749     17996.509    
    130000   0.9866229     -4.7907911     -2.0446228      0.95084727     17979.373    
    131000   1.0034434     -4.8299361     -2.122677       0.9067486      17898.869    
    132000   0.98839117    -4.7970929     -2.0171627      0.97256131     18009.783    
    133000   1.0077808     -4.8208433     -1.9150214      1.0477031      17965.534    
    134000   0.99267718    -4.8543805     -2.0060342      1.0241836      17919.103    
    135000   1.0066081     -4.9030374     -2.0793502      0.99407216     17843.246    
    136000   1.0002696     -4.9118888     -2.0718164      1.0174717      17776.434    
    137000   1.0020746     -4.9131584     -2.0922755      0.99667338     17850.795    
    138000   1.0142803     -4.9208198     -2.0778498      1.0010048      17824.529    
    139000   1.0087023     -4.9162225     -2.1684965      0.93128303     17899.599    
    140000   0.99553954    -4.9410372     -2.1253347      1.0021687      17815.167    
    141000   0.99584888    -4.9524088     -2.0577282      1.0653525      17753.505    
    142000   0.99920484    -4.946613      -2.0717782      1.0453045      17772.688    
    143000   0.98592062    -4.9645753     -2.200529       0.976508       17768.631    
    144000   1.0059739     -4.9946993     -2.1832953      0.9910274      17743.699    
    145000   0.99008637    -4.9602973     -2.1927566      0.96795982     17887.143    
    146000   0.99852062    -4.9792146     -2.1513822      1.0085602      17804.78     
    147000   1.0055284     -4.98601       -2.1039199      1.0450762      17747.772    
    148000   0.99604014    -5.0028739     -2.1923702      0.99970359     17778.75     
    149000   1.0010126     -4.9988513     -2.2693288      0.92952467     17836.588    
    150000   0.99064776    -5.0011857     -2.2969817      0.9217913      17843.109    
    151000   0.98857291    -5.0184021     -2.2886354      0.94788445     17760.322    
    152000   0.9918328     -5.004243      -2.2088298      0.99177291     17801.405    
    153000   1.0040025     -5.0244401     -2.2167296      0.99087398     17736.409    
    154000   0.99341429    -5.0127194     -2.2144953      0.9929291      17786.644    
    155000   0.9944295     -4.9866915     -2.2319656      0.95658708     17827.018    
    156000   0.99345968    -5.0210863     -2.2659818      0.96219784     17748.784    
    157000   1.008428      -4.9969727     -2.2102429      0.96532564     17819.582    
    158000   0.99417311    -5.0128413     -2.2360597      0.97790998     17748.093    
    159000   0.99789107    -5.0147669     -2.0925082      1.0863113      17715.637    
    160000   0.99807702    -5.0007557     -2.2386975      0.95897633     17808.806    
    161000   1.0075926     -5.0316796     -2.2657865      0.95223505     17786.909    
    162000   0.99331762    -5.0197426     -2.1608537      1.0407649      17757.909    
    163000   0.99437983    -5.0728901     -2.1955799      1.0638364      17586.338    
    164000   1.0023085     -5.0423744     -2.2446698      0.98731754     17698.225    
    165000   1.0111394     -5.0416583     -2.2267179      0.98895344     17723.422    
    166000   1.0004789     -5.0308435     -2.2469863      0.97576613     17754.125    
    167000   1.0042721     -5.0330557     -2.1656687      1.0371256      17716.967    
    168000   0.98619153    -5.0372932     -2.2420097      1.0042859      17691.604    
    169000   0.9945775     -5.0357361     -2.3097222      0.93876617     17749.346    
    170000   1.004227      -5.0256454     -2.1129662      1.074432       17671.736    
    171000   0.99405871    -5.0600585     -2.2616556      0.99968169     17655.862    
    172000   0.99070369    -5.0340284     -2.3620961      0.900667       17776.629    
    173000   0.99831973    -5.0350128     -2.2969693      0.9443627      17735.887    
    174000   1.0122421     -5.0514899     -2.202348       1.0170483      17665.86     
    175000   0.99712684    -5.0349621     -2.2300088      0.99476166     17769.63     
    176000   1.0014753     -5.0550848     -2.1914861      1.0396955      17678.454    
    177000   1.0048153     -5.0613987     -2.3022211      0.95536116     17692.676    
    178000   0.99049368    -5.0474931     -2.2715409      0.98197025     17739.176    
    179000   1.0001276     -5.0568426     -2.1781247      1.056663       17613.57     
    180000   1.0044861     -5.0611752     -2.2417949      1.0010768      17703.237    
    181000   1.0023445     -5.0458643     -2.1462087      1.0669049      17667.347    
    182000   0.99728925    -5.0247037     -2.282291       0.94677093     17775.113    
    183000   0.9985637     -5.0464745     -2.2332767      1.0044794      17679.56     
    184000   0.9941994     -5.0222915     -2.2955145      0.938047       17782.097    
    185000   1.0042056     -5.0273555     -2.1537245      1.0411321      17731.047    
    186000   1.0192824     -5.0673158     -2.1241737      1.0838178      17616.871    
    187000   0.9942563     -5.0460309     -2.2104778      1.0255473      17695.691    
    188000   0.99085698    -5.0337617     -2.1602243      1.0603716      17663.042    
    189000   1.0259584     -5.0341251     -2.1257677      1.0450085      17692.399    
    190000   0.99757394    -5.058657      -2.2440546      1.0084394      17648.811    
    191000   0.9999459     -5.0460129     -2.2502674      0.98639138     17736.528    
    192000   0.9949425     -5.0248292     -2.286072       0.94620963     17783.723    
    193000   1.0068431     -5.0738753     -2.1948602      1.0490324      17615.893    
    194000   1.0037668     -5.0478124     -2.2597218      0.9788256      17689.005    
    195000   1.0058162     -5.0526343     -2.185662       1.0373586      17677.45     
    196000   1.0046542     -5.0471966     -2.2787619      0.95776535     17782.15     
    197000   1.0061094     -5.0462781     -2.2725525      0.96098125     17766.31     
    198000   0.9965044     -5.0716179     -2.2041769      1.0521966      17613.375    
    199000   0.99975052    -5.0564201     -2.2832638      0.9697384      17730.722    
    200000   1.0064812     -5.0695356     -2.2208907      1.0249119      17637.585    
    201000   1.0047173     -5.0548738     -2.1727443      1.0518074      17650.313    
    202000   1.014611      -5.0457209     -2.1744774      1.0305896      17676.713    
    203000   0.99694213    -5.069306      -2.2843224      0.98529989     17670.454    
    204000   0.99640029    -5.0556188     -2.321292       0.94428665     17725.34     
    205000   1.01128       -5.079392      -2.1588495      1.0769907      17595.714    
    206000   0.99045552    -5.0556696     -2.3204925      0.95112406     17736.542    
    207000   0.99685377    -5.0613618     -2.2614809      0.99506703     17700.917    
    208000   0.99871961    -5.0684188     -2.2053228      1.0443537      17646.534    
    209000   0.98541963    -5.081895      -2.2726743      1.0194931      17627.595    
    210000   1.0092553     -5.0789919     -2.2087278      1.0384369      17634.83     
Loop time of 479.387 on 8 procs for 100000 steps with 13500 atoms

Performance: 90115.121 tau/day, 208.600 timesteps/s, 2.816 Matom-step/s
80.3% CPU use with 8 MPI tasks x no OpenMP threads

MPI task timing breakdown:
Section |  min time  |  avg time  |  max time  |%varavg| %total
---------------------------------------------------------------
Pair    | 149.78     | 154.74     | 158.21     |  23.5 | 32.28
Neigh   | 67.392     | 69.545     | 71.406     |  17.9 | 14.51
Comm    | 134.09     | 139.91     | 147.27     |  39.0 | 29.19
Output  | 0.92125    | 0.96717    | 0.99425    |   2.3 |  0.20
Modify  | 93.778     | 94.064     | 94.69      |   3.6 | 19.62
Other   |            | 20.15      |            |       |  4.20

Nlocal:         1687.5 ave        1725 max        1636 min
Histogram: 1 0 1 0 2 0 1 0 1 2
Nghost:        4132.25 ave        4177 max        4069 min
Histogram: 1 0 0 0 3 0 0 2 1 1
Neighs:          97388 ave      102332 max       93462 min
Histogram: 2 2 0 0 0 1 0 1 1 1

Total # of neighbors = 779104
Ave neighs/atom = 57.711407
Neighbor list builds = 14788
Dangerous builds = 0
Total wall time: 0:11:32
